 vasp.6.3.2 27Jun22 (build Mar 15 2023 15:45:48) complex

 executed on             LinuxIFC date 2024.07.24  09:05:32

 INCAR:
   SYSTEM = ni3al
   PREC = Accurate
   EDIFF = 1E-4
   EDIFFG = -2E-2
   ISTART = 0
   NCORE = 4
   ICHARG = 2
   LREAL = Auto
   NSW = 300
   ISIF = 2
   IBRION = 2
   ISMEAR = 0
   SIGMA = 0.1
   ENCUT = 530
   ALGO = Fast
   LMAXMIX = 4
   AMIN = 0.01
   NELM = 150
   LCHARG = .FALSE.
   LWAVE = .FALSE.
   KPAR = 8

 POTCAR:    PAW_PBE O 08Apr2002
 POTCAR:    PAW_PBE Al 04Jan2001
 POTCAR:    PAW_PBE O 08Apr2002
   VRHFIN =O: s2p4

   TITEL  = PAW_PBE O 08Apr2002
   POMASS =   16.000; ZVAL   =    6.000    mass and valenz
   ENMAX  =  400.000; ENMIN  =  300.000 eV

 POTCAR:    PAW_PBE Al 04Jan2001
   VRHFIN =Al: s2p1

   TITEL  = PAW_PBE Al 04Jan2001
   POMASS =   26.981; ZVAL   =    3.000    mass and valenz
   ENMAX  =  240.300; ENMIN  =  180.225 eV

 Optimization of the real space projectors (new method)

 maximal supplied QI-value         = 24.76
 optimisation between [QCUT,QGAM] = [ 11.64, 23.52] = [ 37.91,154.88] Ry
 Optimized for a Real-space Cutoff    1.16 Angstroem

   l    n(q)    QCUT    max X(q) W(low)/X(q) W(high)/X(q)  e(spline)
   0      8    11.635    20.381    0.63E-04    0.20E-03    0.27E-06
   0      8    11.635    15.268    0.67E-04    0.21E-03    0.29E-06
   1      8    11.635     5.964    0.19E-03    0.13E-03    0.31E-06
   1      8    11.635     5.382    0.18E-03    0.10E-03    0.27E-06
 Optimization of the real space projectors (new method)

 maximal supplied QI-value         = 19.84
 optimisation between [QCUT,QGAM] = [ 11.71, 23.41] = [ 38.38,153.51] Ry
 Optimized for a Real-space Cutoff    1.20 Angstroem

   l    n(q)    QCUT    max X(q) W(low)/X(q) W(high)/X(q)  e(spline)
   0      8    11.707   176.870    0.56E-04    0.14E-03    0.47E-07
   0      8    11.707   105.762    0.55E-04    0.13E-03    0.46E-07
   1      8    11.707    55.370    0.15E-03    0.19E-04    0.75E-07
   1      8    11.707    20.208    0.14E-03    0.15E-04    0.69E-07
  PAW_PBE O 08Apr2002                   :
  PAW_PBE Al 04Jan2001                  :

 POSCAR: SCAR
  positions in direct lattice
  velocities in cartesian coordinates
 exchange correlation table for  LEXCH =        8
   RHO(1)=    0.500       N(1)  =     2000
   RHO(2)=  100.500       N(2)  =     4000

 VTST: version 4.2, (08/11/21)

 CHAIN: initializing optimizer

 OPT: Using VASP Conjugate-Gradient optimizer
 CHAIN: Read ICHAIN            0

 POSCAR: SCAR
  positions in direct lattice
  velocities in cartesian coordinates

 ion  position               nearest neighbor table
   1  0.173  0.986  0.000-  53 1.87  52 1.99
   2  0.423  0.486  0.000-  54 1.87  63 1.99
   3  0.097  0.500  0.101-  49 1.87  51 1.87  60 1.99  54 1.99
   4  0.347  0.000  0.101-  50 1.87  52 1.87  71 1.99  65 1.99
   5  0.153  0.333  0.000-  54 1.87  51 1.99
   6  0.403  0.833  0.000-  65 1.87  52 1.99
   7  0.173  0.680  0.000-  54 1.87  52 1.99
   8  0.423  0.180  0.000-  65 1.87  63 1.99
   9  0.077  0.153  0.101-  50 1.87  51 1.87  59 1.99  53 1.99
  10  0.327  0.653  0.101-  61 1.87  52 1.87  60 1.99  54 1.99
  11  0.077  0.847  0.101-  52 1.87  49 1.87  59 1.99  53 1.99
  12  0.327  0.347  0.101-  63 1.87  50 1.87  60 1.99  54 1.99
  13  0.173  0.320  0.203-  57 1.87  60 1.87  56 1.99  50 1.99
  14  0.423  0.820  0.203-  58 1.87  71 1.87  67 1.99  61 1.99
  15  0.097  0.833  0.304-  55 1.87  58 1.99
  16  0.347  0.333  0.304-  56 1.87  69 1.99
  17  0.153  0.667  0.203-  58 1.87  60 1.87  55 1.99  49 1.99
  18  0.403  0.167  0.203-  69 1.87  71 1.87  56 1.99  50 1.99
  19  0.173  0.014  0.203-  59 1.87  58 1.87  56 1.99  50 1.99
  20  0.423  0.514  0.203-  60 1.87  69 1.87  67 1.99  61 1.99
  21  0.077  0.486  0.304-  55 1.87  57 1.99
  22  0.327  0.986  0.304-  56 1.87  58 1.99
  23  0.077  0.180  0.304-  56 1.87  57 1.99
  24  0.327  0.680  0.304-  67 1.87  58 1.99
  25  0.673  0.986  0.000-  65 1.87  64 1.99
  26  0.923  0.486  0.000-  66 1.87  51 1.99
  27  0.597  0.500  0.101-  61 1.87  63 1.87  72 1.99  66 1.99
  28  0.847  0.000  0.101-  62 1.87  64 1.87  59 1.99  53 1.99
  29  0.653  0.333  0.000-  66 1.87  63 1.99
  30  0.903  0.833  0.000-  53 1.87  64 1.99
  31  0.673  0.680  0.000-  66 1.87  64 1.99
  32  0.923  0.180  0.000-  53 1.87  51 1.99
  33  0.577  0.153  0.101-  62 1.87  63 1.87  71 1.99  65 1.99
  34  0.827  0.653  0.101-  49 1.87  64 1.87  72 1.99  66 1.99
  35  0.577  0.847  0.101-  64 1.87  61 1.87  71 1.99  65 1.99
  36  0.827  0.347  0.101-  51 1.87  62 1.87  72 1.99  66 1.99
  37  0.673  0.320  0.203-  69 1.87  72 1.87  68 1.99  62 1.99
  38  0.923  0.820  0.203-  70 1.87  59 1.87  55 1.99  49 1.99
  39  0.597  0.833  0.304-  67 1.87  70 1.99
  40  0.847  0.333  0.304-  68 1.87  57 1.99
  41  0.653  0.667  0.203-  70 1.87  72 1.87  67 1.99  61 1.99
  42  0.903  0.167  0.203-  57 1.87  59 1.87  68 1.99  62 1.99
  43  0.673  0.014  0.203-  71 1.87  70 1.87  68 1.99  62 1.99
  44  0.923  0.514  0.203-  57 1.87  72 1.87  55 1.99  49 1.99
  45  0.577  0.486  0.304-  67 1.87  69 1.99
  46  0.827  0.986  0.304-  68 1.87  70 1.99
  47  0.577  0.180  0.304-  68 1.87  69 1.99
  48  0.827  0.680  0.304-  55 1.87  70 1.99
  49  0.000  0.667  0.141-  34 1.87   3 1.87  11 1.87  17 1.99  44 1.99  38 1.99  55 2.68  59 2.82
                            60 2.82  72 2.82  64 3.25  52 3.25  51 3.25
  50  0.250  0.167  0.141-   9 1.87  12 1.87   4 1.87  19 1.99  13 1.99  18 1.99  56 2.68  60 2.82
                            59 2.82  71 2.82  63 3.25  51 3.25  52 3.25
  51  0.000  0.333  0.062-  36 1.87   3 1.87   9 1.87  26 1.99  32 1.99   5 1.99  53 2.82  54 2.82
                            66 2.82  62 3.25  50 3.25  49 3.25
  52  0.250  0.833  0.062-  11 1.87  10 1.87   4 1.87   7 1.99   1 1.99   6 1.99  54 2.82  53 2.82
                            65 2.82  61 3.25  49 3.25  50 3.25
  53  0.000  0.000  0.039-  32 1.87   1 1.87  30 1.87  28 1.99  11 1.99   9 1.99  59 2.68  51 2.82
                            52 2.82  64 2.82
  54  0.250  0.500  0.039-   2 1.87   5 1.87   7 1.87  10 1.99  12 1.99   3 1.99  60 2.68  52 2.82
                            51 2.82  63 2.82
  55  0.000  0.667  0.265-  15 1.87  48 1.87  21 1.87  17 1.99  44 1.99  38 1.99  49 2.68  58 2.82
                            70 2.82  57 2.82
  56  0.250  0.167  0.265-  23 1.87  16 1.87  22 1.87  19 1.99  13 1.99  18 1.99  50 2.68  57 2.82
                            69 2.82  58 2.82
  57  0.000  0.333  0.242-  42 1.87  13 1.87  44 1.87  40 1.99  21 1.99  23 1.99  56 2.82  68 2.82
                            55 2.82  59 3.25  60 3.25  72 3.25
  58  0.250  0.833  0.242-  14 1.87  17 1.87  19 1.87  22 1.99  24 1.99  15 1.99  55 2.82  67 2.82
                            56 2.82  60 3.25  59 3.25  71 3.25
  59  0.000  0.000  0.164-  38 1.87  19 1.87  42 1.87  28 1.99   9 1.99  11 1.99  53 2.68  49 2.82
                            50 2.82  62 2.82  57 3.25  58 3.25  70 3.25
  60  0.250  0.500  0.164-  13 1.87  20 1.87  17 1.87  12 1.99  10 1.99   3 1.99  54 2.68  50 2.82
                            49 2.82  61 2.82  58 3.25  57 3.25  69 3.25
  61  0.500  0.667  0.141-  10 1.87  35 1.87  27 1.87  20 1.99  14 1.99  41 1.99  67 2.68  71 2.82
                            60 2.82  72 2.82  64 3.25  52 3.25  63 3.25
  62  0.750  0.167  0.141-  33 1.87  36 1.87  28 1.87  43 1.99  37 1.99  42 1.99  68 2.68  72 2.82
                            71 2.82  59 2.82  63 3.25  51 3.25  64 3.25
  63  0.500  0.333  0.062-  12 1.87  33 1.87  27 1.87   2 1.99   8 1.99  29 1.99  65 2.82  54 2.82
                            66 2.82  50 3.25  62 3.25  61 3.25
  64  0.750  0.833  0.062-  35 1.87  34 1.87  28 1.87  25 1.99  31 1.99  30 1.99  66 2.82  65 2.82
                            53 2.82  49 3.25  61 3.25  62 3.25
  65  0.500  0.000  0.039-   8 1.87  25 1.87   6 1.87   4 1.99  33 1.99  35 1.99  71 2.68  63 2.82
                            64 2.82  52 2.82
  66  0.750  0.500  0.039-  31 1.87  26 1.87  29 1.87  27 1.99  34 1.99  36 1.99  72 2.68  64 2.82
                            51 2.82  63 2.82
  67  0.500  0.667  0.265-  24 1.87  39 1.87  45 1.87  20 1.99  14 1.99  41 1.99  61 2.68  58 2.82
                            70 2.82  69 2.82
  68  0.750  0.167  0.265-  47 1.87  40 1.87  46 1.87  43 1.99  37 1.99  42 1.99  62 2.68  57 2.82
                            69 2.82  70 2.82
  69  0.500  0.333  0.242-  18 1.87  37 1.87  20 1.87  16 1.99  45 1.99  47 1.99  56 2.82  68 2.82
                            67 2.82  71 3.25  60 3.25  72 3.25
  70  0.750  0.833  0.242-  41 1.87  38 1.87  43 1.87  39 1.99  46 1.99  48 1.99  55 2.82  67 2.82
                            68 2.82  72 3.25  71 3.25  59 3.25
  71  0.500  0.000  0.164-  14 1.87  43 1.87  18 1.87   4 1.99  35 1.99  33 1.99  65 2.68  61 2.82
                            62 2.82  50 2.82  69 3.25  58 3.25  70 3.25
  72  0.750  0.500  0.164-  37 1.87  44 1.87  41 1.87  27 1.99  36 1.99  34 1.99  66 2.68  62 2.82
                            49 2.82  61 2.82  70 3.25  69 3.25  57 3.25

  LATTYP: Found a simple orthorhombic cell.
 ALAT       =     8.3267490000
 B/A-ratio  =     1.1547005920
 C/A-ratio  =     2.5893164307

  Lattice vectors:

 A1 = (   0.0000000000,  -8.3267490000,   0.0000000000)
 A2 = (   9.6149020000,   0.0000000000,   0.0000000000)
 A3 = (   0.0000000000,   0.0000000000,  21.5605880000)

Analysis of symmetry for initial positions (statically):
 Subroutine PRICEL returns following result:

  LATTYP: Found a hexagonal cell.
 ALAT       =     4.8074510000
 C/A-ratio  =     4.4848274065

[...]

   4 primitive cells build up your supercell.

 Routine SETGRP: Setting up the symmetry group for a
 simple orthorhombic supercell.

 Subroutine GETGRP returns: Found  2 space group operations
 (whereof  1 operations were pure point group operations)
 out of a pool of  8 trial point group operations.

The static configuration has the point symmetry C_1 .
 The point group associated with its full space group is S_2 .

Analysis of symmetry for dynamics (positions and initial velocities):
 Subroutine PRICEL returns following result:

[...]

The dynamic configuration has the point symmetry C_1 .
 The point group associated with its full space group is S_2 .

Analysis of constrained symmetry for selective dynamics:
 Subroutine PRICEL returns following result:

  LATTYP: Found a hexagonal cell.
 ALAT       =     4.8074510000
 C/A-ratio  =     4.4848274065

  Lattice vectors:

 A1 = (  -4.8074510000,   0.0000000000,   0.0000000000)
 A2 = (   2.4037255000,  -4.1633745000,   0.0000000000)
 A3 = (   0.0000000000,   0.0000000000,  21.5605880000)

   4 primitive cells build up your supercell.

 Routine SETGRP: Setting up the symmetry group for a
 simple orthorhombic supercell.

 Subroutine GETGRP returns: Found  1 space group operations
 (whereof  1 operations were pure point group operations)
 out of a pool of  8 trial point group operations.

The constrained configuration has the point symmetry C_1 .

 Subroutine INISYM returns: Found  1 space group operations
 (whereof  1 operations are pure point group operations),
 and found     4 'primitive' translations

                                     Primitive cell

[...]
  257        chggra                                0.705242                           39   3
  258          fft3d_mpi                             0.385019                        117   4
  259            fftbrc_mpi                            0.301407                      117   5
  260              fftbas_plan_mpi                       0.301312                    117   6
  261                map_forward                           0.000937                  156   7
  262                  map_scatter                           0.000273                 78   8
  263                map_backward                          0.000457                   78   7
  264                  map_gather                            0.000147                 39   8
  265          pothar                                0.042942                         39   4
  266        brmix                                 4.214743                           39   3
  267          brpre                                 0.047244                         39   4
  268          setg0                                 1.821154                         39   4
  269          broyd                                 0.715621                         39   4
  270            brget                                 0.136439                     1906   5
  271            brsav                                 0.076619                      510   5
  272          m_bcast_z                             1.005488                         39   4
  273          m_bcast_d                             0.012327                         39   4
  274        m_bcast_d                             0.005543                           78   3
  275      potlok                               48.607744                             39   2
  276        fft3d_mpi                            16.935899                          507   3
  277          fftbrc_mpi                           13.405595                        507   4
  278            fftbas_plan_mpi                      13.404679                      507   5
  279              dfftw_execute                         8.367153                   1521   6
  280              map_forward                           2.473590                    546   6
  281                map_scatter                           1.431440                  273   7
  282              map_backward                          2.490496                    468   6
  283                map_gather                            1.667862                  234   7
  284        ggaall_grid                           7.306926                           39   3
  285        pothar                                1.435811                           39   3
  286      potlok_metagga                        0.000031                             39   2
  287      set_dd_magatom                        0.000174                             39   2
  288      set_dd_paw                            1.157027                             39   2
  289        m_sumb_d                              0.329382                          273   3
  290      wavpre_noio                          26.337713                             38   2
  291        stufak                                8.924787                           38   3
  292      densta                                0.001769                              1   2
  293        m_sumb_d                              0.000123                           41   3

 Flat profile

 potlok                                229.904422         389
 eddav                                 126.945623          43
 rpromu_acc                            108.037586      119609
 i2                                     99.583975       58722
 dfftw_execute                          98.033460       18675
 ggaall_grid                            80.962338         428
 eddiag                                 79.480765         311
 hamiltmu                               70.412423       66247
 i3                                     64.901297       58722
 m_sumb_d                               57.673382       19972
 setdij_                                56.290785        1404
 newband                                48.602567       66955
 fft3d_mpi                              43.011512      431378
 fft3d                                  23.441545     1376529
 augmentation_charge                    22.030508         350
 map_gather                             20.921136        3307
 total_time                             20.342782           1
 phaser                                 18.936015        1722
 force_and_stress                       18.323174          39
 wavpre_noio                            17.412926          38
 choleski                               16.818120         700
 racc0mu_acc                            16.776112       66247
 raccmu_                                16.621395       66247
 cnorma                                 16.432411     1092771
 setg0                                  16.156214         389
 map_scatter                            15.691556        3035
 rspher_all                             15.342182         508
 pothar                                 14.371350         428
 forhar                                 11.747818          78
 map_forward                            11.501193        6070
 eccp                                   10.808161      517893
 map_backward                           10.347222        6614
 elmin                                   9.189655          39
 stufak                                  9.183907          39
 set_dd_paw                              9.074835         428
 m_bcast_z                               8.369920         783
 fftwav                                  7.331562      951493
 w1_copy                                 7.237536      870186
 lapack                                  6.456902        7525
 w1_gemv                                 6.385294      783912
 w1_dot                                  6.264145      133393
 forloc                                  5.879507          39
 brmix                                   5.501732         350
 w1_dscal                                5.202551      523277
 orth1                                   4.796455       25763
 overl_mu                                4.695506       66247
 orthch                                  4.284861         350
 lincom                                  4.148358        1408
 w1_daxpy                                3.844879      461728
 set_charge                              2.743244         350
 broyd                                   2.657684         350
 proall                                  2.169642          39
 eddrmm                                  1.857439         311
 kinhamil                                1.801746      425036
 fftext_mpi                              1.729453      425036
 vhamil                                  1.587508      425036
 soft_charge                             1.574322         350
 eccp_nl                                 1.572718      728514
 depsum                                  1.572449         350
 w1_gaxpy                                1.531190      199048
 overl1                                  1.454497      195978
 fftwav_mpi                              1.439805      951493
 fftbas_plan_mpi                         1.408674        6342
 apply_precond                           1.230045      371396
 strnlr                                  1.206169          39
 setup_precond                           1.088128      153636
 brget                                   0.840806       11876
 rpro_isp                                0.833872        1014
 zhegv                                   0.817423       97471
 strkin                                  0.757962          39
 overl                                   0.750685       97894
 strelo                                  0.683138          39
 densta                                  0.578344         355
 brsav                                   0.517529        3582
 ggemm                                   0.475916        9933
 init_hip                                0.469194           1
 pw_charge                               0.450730      134071
 brpre                                   0.423633         350
 strehar                                 0.405375          39
 fornlr                                  0.393753          39
 chggra                                  0.277281          39
 rsp                                     0.181082          39
 fft_gq                                  0.164210         350
 m_bcast_d                               0.137424         585
 hamilt_local                            0.123722      134974
 i1                                      0.121652       58722
 w1_projall                              0.071311       63839
 truncate_high_frequency_w1              0.063441      443698
 inisym                                  0.047125           1
 hip_hipfft_makeplan                     0.015275           6
 rcp                                     0.014047          39
 brgrid                                  0.011832           1
 fftbrc_mpi                              0.010273        6342
 fewald                                  0.002607          39
 vectorpot                               0.001829         351
 fordep                                  0.001823          39
 set_dd_magatom                          0.001740         428
 shift_bands_between_low_high            0.000387         622
 hip_init_hipblas                        0.000291           1
 potlok_metagga                          0.000285         389
 posmap                                  0.000119           2
 hip_init_rocsolver                      0.000068           1
 crpa_reader                             0.000062           1
 rotate_active_occupied_orbital          0.000024          39
 redis_pw_over_bands                     0.000004          39
 hip_hipfft_makeplans                    0.000004           3
  summed up times    1623.98054599762

 Accumulative profile

 total_time                           1623.980546           1
 elmin                                1284.075241          39
 potlok                                485.272893         389
 eddrmm                                428.016292         311
 force_and_stress                      220.560127          39
 fft3d_mpi                             207.887962      431378
 eddav                                 170.802389          43
 fftbrc_mpi                            157.913514        6342
 fftbas_plan_mpi                       157.903242        6342
 i2                                    122.695390       58722
 hamiltmu                              116.930950       66247
 rpromu_acc                            108.037586      119609
 i3                                    102.849981       58722
 dfftw_execute                          98.033460       18675
 eddiag                                 90.862077         311
 set_charge                             84.949745         350
 rpro_isp                               81.077702        1014
 ggaall_grid                            80.962338         428
 strnlr                                 77.686580          39
 newband                                58.405882       66955
 m_sumb_d                               57.673382       19972
 setdij_                                56.290785        1404
 soft_charge                            46.032133         350
 raccmu_                                38.093013       66247
 brmix                                  34.578227         350
 w1_projall                             34.177587       63839
 augmentation_charge                    34.150234         350
 map_backward                           31.268358        6614
 map_forward                            27.192749        6070
 wavpre_noio                            26.337713          38
 fornlr                                 25.716103          39
 fftwav_mpi                             25.249976      951493
 orthch                                 24.840886         350
 fftwav                                 23.810172      951493
 fft3d                                  23.441545     1376529
 map_gather                             20.921136        3307
 phaser                                 18.936015        1722
 cnorma                                 18.005129     1092771
 choleski                               16.818120         700
 racc0mu_acc                            16.776112       66247
 setg0                                  16.156214         389
 map_scatter                            15.691556        3035
 rspher_all                             15.342182         508
 pothar                                 14.371350         428
 set_dd_paw                             12.949534         428
 forhar                                 11.747818          78
 eccp                                   10.808161      517893
 kinhamil                               10.731791      425036
 proall                                  9.636079          39
 fordep                                  9.374151          39
 stufak                                  9.183907          39
 fftext_mpi                              8.930045      425036
 m_bcast_z                               8.369920         783
 w1_gemv                                 7.839791      783912
 w1_copy                                 7.237536      870186
 lapack                                  6.456902        7525
 w1_dot                                  6.264145      133393
 forloc                                  5.879507          39
 w1_dscal                                5.202551      523277
 orth1                                   4.796455       25763
 overl_mu                                4.695506       66247
 lincom                                  4.148358        1408
 hamilt_local                            4.017508      134974
 broyd                                   4.016019         350
 w1_daxpy                                3.844879      461728
 fft_gq                                  3.421985         350
 depsum                                  2.024133         350
 i1                                      1.816396       58722
 vhamil                                  1.587508      425036
 eccp_nl                                 1.572718      728514
 w1_gaxpy                                1.531190      199048
 overl1                                  1.454497      195978
 apply_precond                           1.230045      371396
 setup_precond                           1.088128      153636
 brget                                   0.840806       11876
 zhegv                                   0.817423       97471
 strkin                                  0.792525          39
 overl                                   0.750685       97894
 chggra                                  0.705242          39
 strelo                                  0.683138          39
 fewald                                  0.639256          39
 densta                                  0.620363         355
 brsav                                   0.517529        3582
 ggemm                                   0.475916        9933
 init_hip                                0.469194           1
 pw_charge                               0.450730      134071
 brpre                                   0.423633         350
 strehar                                 0.405375          39
 rsp                                     0.181082          39
 m_bcast_d                               0.137424         585
 truncate_high_frequency_w1              0.063441      443698
 inisym                                  0.047244           1
 hip_hipfft_makeplans                    0.015279           3
 hip_hipfft_makeplan                     0.015275           6
 rcp                                     0.014047          39
 brgrid                                  0.011832           1
 vectorpot                               0.001829         351
 set_dd_magatom                          0.001740         428
 shift_bands_between_low_high            0.000387         622
 hip_init_hipblas                        0.000291           1
 potlok_metagga                          0.000285         389
 posmap                                  0.000119           2
 hip_init_rocsolver                      0.000068           1
 crpa_reader                             0.000062           1
 rotate_active_occupied_orbital          0.000024          39
 redis_pw_over_bands                     0.000004          39

Profiling took   2.229586  1.362115  0.002847  0.002693 seconds
Profiling took   1.784151 seconds