 vasp.6.3.2 27Jun22 (build Mar 15 2023 15:45:48) complex

 executed on             LinuxIFC date 2024.07.24  09:11:51

 INCAR:
   SYSTEM = ni3al
   PREC = Accurate
   EDIFF = 1E-4
   EDIFFG = -2E-2
   ISTART = 0
   NCORE = 4
   ICHARG = 2
   LREAL = Auto
   NSW = 300
   ISIF = 2
   IBRION = 2
   ISMEAR = 0
   SIGMA = 0.1
   ENCUT = 530
   ALGO = Fast
   LMAXMIX = 4
   AMIN = 0.01
   NELM = 150
   LCHARG = .FALSE.
   LWAVE = .FALSE.
   KPAR = 8

 POTCAR:    PAW_PBE O 08Apr2002
 POTCAR:    PAW_PBE Al 04Jan2001
 POTCAR:    PAW_PBE O 08Apr2002
   VRHFIN =O: s2p4

   TITEL  = PAW_PBE O 08Apr2002
   POMASS =   16.000; ZVAL   =    6.000    mass and valenz
   ENMAX  =  400.000; ENMIN  =  300.000 eV

 POTCAR:    PAW_PBE Al 04Jan2001
   VRHFIN =Al: s2p1

   TITEL  = PAW_PBE Al 04Jan2001
   POMASS =   26.981; ZVAL   =    3.000    mass and valenz
   ENMAX  =  240.300; ENMIN  =  180.225 eV

 Optimization of the real space projectors (new method)

 maximal supplied QI-value         = 24.76
 optimisation between [QCUT,QGAM] = [ 11.64, 23.52] = [ 37.91,154.88] Ry
 Optimized for a Real-space Cutoff    1.16 Angstroem

   l    n(q)    QCUT    max X(q) W(low)/X(q) W(high)/X(q)  e(spline)
   0      8    11.635    20.381    0.63E-04    0.20E-03    0.27E-06
   0      8    11.635    15.268    0.67E-04    0.21E-03    0.29E-06
   1      8    11.635     5.964    0.19E-03    0.13E-03    0.31E-06
   1      8    11.635     5.382    0.18E-03    0.10E-03    0.27E-06
 Optimization of the real space projectors (new method)

 maximal supplied QI-value         = 19.84
 optimisation between [QCUT,QGAM] = [ 11.71, 23.41] = [ 38.38,153.51] Ry
 Optimized for a Real-space Cutoff    1.20 Angstroem

   l    n(q)    QCUT    max X(q) W(low)/X(q) W(high)/X(q)  e(spline)
   0      8    11.707   176.870    0.56E-04    0.14E-03    0.47E-07
   0      8    11.707   105.762    0.55E-04    0.13E-03    0.46E-07
   1      8    11.707    55.370    0.15E-03    0.19E-04    0.75E-07
   1      8    11.707    20.208    0.14E-03    0.15E-04    0.69E-07
  PAW_PBE O 08Apr2002                   :
  PAW_PBE Al 04Jan2001                  :

 POSCAR: SCAR
  positions in direct lattice
  velocities in cartesian coordinates
 exchange correlation table for  LEXCH =        8
   RHO(1)=    0.500       N(1)  =     2000
   RHO(2)=  100.500       N(2)  =     4000

 VTST: version 4.2, (08/11/21)

 CHAIN: initializing optimizer

 OPT: Using VASP Conjugate-Gradient optimizer
 CHAIN: Read ICHAIN            0

 POSCAR: SCAR
  positions in direct lattice
  velocities in cartesian coordinates

 ion  position               nearest neighbor table
   1  0.173  0.986  0.062-  41 1.87  44 1.87  40 1.99  50 1.99
   2  0.423  0.486  0.062-  42 1.87  57 1.87  53 1.99  63 1.99
   3  0.097  0.500  0.164-  37 1.87  39 1.87  48 1.99  42 1.99
   4  0.347  0.000  0.164-  38 1.87  40 1.87  61 1.99  55 1.99
   5  0.153  0.333  0.062-  44 1.87  42 1.87  39 1.99  49 1.99
   6  0.403  0.833  0.062-  57 1.87  55 1.87  40 1.99  50 1.99
   7  0.173  0.680  0.062-  42 1.87  43 1.87  40 1.99  50 1.99
   8  0.423  0.180  0.062-  44 1.87  55 1.87  53 1.99  63 1.99
   9  0.077  0.153  0.164-  38 1.87  39 1.87  47 1.99  41 1.99
  10  0.327  0.653  0.164-  51 1.87  40 1.87  48 1.99  42 1.99
  11  0.077  0.847  0.164-  37 1.87  40 1.87  47 1.99  41 1.99
  12  0.327  0.347  0.164-  38 1.87  53 1.87  48 1.99  42 1.99
  13  0.173  0.320  0.265-  48 1.87  45 1.87  38 1.99
  14  0.423  0.820  0.265-  61 1.87  46 1.87  51 1.99
  15  0.153  0.667  0.265-  46 1.87  48 1.87  37 1.99
  16  0.403  0.167  0.265-  59 1.87  61 1.87  38 1.99
  17  0.173  0.014  0.265-  47 1.87  46 1.87  38 1.99
  18  0.423  0.514  0.265-  48 1.87  59 1.87  51 1.99
  19  0.673  0.986  0.062-  55 1.87  58 1.87  54 1.99  64 1.99
  20  0.923  0.486  0.062-  56 1.87  43 1.87  39 1.99  49 1.99
  21  0.597  0.500  0.164-  51 1.87  53 1.87  62 1.99  56 1.99
  22  0.847  0.000  0.164-  52 1.87  54 1.87  47 1.99  41 1.99
  23  0.653  0.333  0.062-  58 1.87  56 1.87  53 1.99  63 1.99
  24  0.903  0.833  0.062-  43 1.87  41 1.87  54 1.99  64 1.99
  25  0.673  0.680  0.062-  56 1.87  57 1.87  54 1.99  64 1.99
  26  0.923  0.180  0.062-  41 1.87  58 1.87  39 1.99  49 1.99
  27  0.577  0.153  0.164-  52 1.87  53 1.87  61 1.99  55 1.99
  28  0.827  0.653  0.164-  37 1.87  54 1.87  62 1.99  56 1.99
  29  0.577  0.847  0.164-  51 1.87  54 1.87  61 1.99  55 1.99
  30  0.827  0.347  0.164-  52 1.87  39 1.87  62 1.99  56 1.99
  31  0.673  0.320  0.265-  62 1.87  59 1.87  52 1.99
  32  0.923  0.820  0.265-  47 1.87  60 1.87  37 1.99
  33  0.653  0.667  0.265-  60 1.87  62 1.87  51 1.99
  34  0.903  0.167  0.265-  45 1.87  47 1.87  52 1.99
  35  0.673  0.014  0.265-  61 1.87  60 1.87  52 1.99
  36  0.923  0.514  0.265-  62 1.87  45 1.87  37 1.99
  37  0.000  0.667  0.203-  11 1.87  28 1.87   3 1.87  15 1.99  36 1.99  32 1.99  47 2.82  48 2.82
                            62 2.82  54 3.25  40 3.25  39 3.25
  38  0.250  0.167  0.203-  12 1.87   9 1.87   4 1.87  17 1.99  13 1.99  16 1.99  48 2.82  47 2.82
                            61 2.82  53 3.25  39 3.25  40 3.25
  39  0.000  0.333  0.124-  30 1.87   9 1.87   3 1.87  20 1.99  26 1.99   5 1.99  49 2.68  41 2.82
                            42 2.82  56 2.82  52 3.25  38 3.25  37 3.25
  40  0.250  0.833  0.124-  11 1.87  10 1.87   4 1.87   1 1.99   7 1.99   6 1.99  50 2.68  42 2.82
                            41 2.82  55 2.82  51 3.25  37 3.25  38 3.25
  41  0.000  0.000  0.101-  26 1.87   1 1.87  24 1.87  22 1.99   9 1.99  11 1.99  47 2.68  39 2.82
                            40 2.82  54 2.82  43 3.25  44 3.25  58 3.25
  42  0.250  0.500  0.101-   7 1.87   2 1.87   5 1.87   3 1.99  10 1.99  12 1.99  48 2.68  40 2.82
                            39 2.82  53 2.82  44 3.25  43 3.25  57 3.25
  43  0.000  0.667  0.023-  24 1.87   7 1.87  20 1.87  50 2.82  64 2.82  49 2.82  41 3.25  56 3.25
                            42 3.25
  44  0.250  0.167  0.023-   5 1.87   8 1.87   1 1.87  49 2.82  63 2.82  50 2.82  42 3.25  55 3.25
                            41 3.25
  45  0.000  0.333  0.304-  34 1.87  13 1.87  36 1.87  47 3.25  48 3.25  62 3.25
  46  0.250  0.833  0.304-  14 1.87  15 1.87  17 1.87  48 3.25  47 3.25  61 3.25
  47  0.000  0.000  0.226-  32 1.87  17 1.87  34 1.87  22 1.99   9 1.99  11 1.99  41 2.68  37 2.82
                            38 2.82  52 2.82  45 3.25  46 3.25  60 3.25
  48  0.250  0.500  0.226-  13 1.87  18 1.87  15 1.87   3 1.99  10 1.99  12 1.99  42 2.68  38 2.82
                            37 2.82  51 2.82  46 3.25  45 3.25  59 3.25
  49  0.000  0.333  0.000-  20 1.99  26 1.99   5 1.99  39 2.68  44 2.82  58 2.82  43 2.82
  50  0.250  0.833  0.000-   1 1.99   7 1.99   6 1.99  40 2.68  43 2.82  57 2.82  44 2.82
  51  0.500  0.667  0.203-  29 1.87  10 1.87  21 1.87  33 1.99  18 1.99  14 1.99  61 2.82  48 2.82
                            62 2.82  40 3.25  54 3.25  53 3.25
  52  0.750  0.167  0.203-  30 1.87  27 1.87  22 1.87  35 1.99  31 1.99  34 1.99  62 2.82  61 2.82
                            47 2.82  39 3.25  53 3.25  54 3.25
  53  0.500  0.333  0.124-  12 1.87  27 1.87  21 1.87   2 1.99   8 1.99  23 1.99  63 2.68  55 2.82
                            56 2.82  42 2.82  52 3.25  38 3.25  51 3.25
  54  0.750  0.833  0.124-  29 1.87  28 1.87  22 1.87  19 1.99  25 1.99  24 1.99  64 2.68  56 2.82
                            41 2.82  55 2.82  51 3.25  37 3.25  52 3.25
  55  0.500  0.000  0.101-  19 1.87   6 1.87   8 1.87   4 1.99  27 1.99  29 1.99  61 2.68  53 2.82
                            54 2.82  40 2.82  57 3.25  58 3.25  44 3.25
  56  0.750  0.500  0.101-  25 1.87  20 1.87  23 1.87  21 1.99  28 1.99  30 1.99  62 2.68  54 2.82
                            39 2.82  53 2.82  58 3.25  43 3.25  57 3.25
  57  0.500  0.667  0.023-   6 1.87  25 1.87   2 1.87  50 2.82  64 2.82  63 2.82  55 3.25  42 3.25
                            56 3.25
  58  0.750  0.167  0.023-  23 1.87  26 1.87  19 1.87  49 2.82  63 2.82  64 2.82  56 3.25  55 3.25
                            41 3.25
  59  0.500  0.333  0.304-  16 1.87  31 1.87  18 1.87  61 3.25  48 3.25  62 3.25
  60  0.750  0.833  0.304-  32 1.87  33 1.87  35 1.87  62 3.25  61 3.25  47 3.25
  61  0.500  0.000  0.226-  14 1.87  35 1.87  16 1.87   4 1.99  27 1.99  29 1.99  55 2.68  51 2.82
                            52 2.82  38 2.82  59 3.25  46 3.25  60 3.25
  62  0.750  0.500  0.226-  31 1.87  36 1.87  33 1.87  21 1.99  28 1.99  30 1.99  56 2.68  52 2.82
                            37 2.82  51 2.82  60 3.25  59 3.25  45 3.25
  63  0.500  0.333  0.000-   2 1.99   8 1.99  23 1.99  53 2.68  44 2.82  58 2.82  57 2.82
  64  0.750  0.833  0.000-  19 1.99  25 1.99  24 1.99  54 2.68  43 2.82  57 2.82  58 2.82

  LATTYP: Found a simple orthorhombic cell.
 ALAT       =     8.3267490000
 B/A-ratio  =     1.1547005920
 C/A-ratio  =     2.5893163106

  Lattice vectors:

 A1 = (   0.0000000000,  -8.3267490000,   0.0000000000)
 A2 = (   9.6149020000,   0.0000000000,   0.0000000000)
 A3 = (   0.0000000000,   0.0000000000,  21.5605870000)

Analysis of symmetry for initial positions (statically):
 Subroutine PRICEL returns following result:

  LATTYP: Found a hexagonal cell.
 ALAT       =     4.8074510000
 C/A-ratio  =     4.4848271984

[...]

   4 primitive cells build up your supercell.

 Routine SETGRP: Setting up the symmetry group for a
 simple orthorhombic supercell.

 Subroutine GETGRP returns: Found  1 space group operations
 (whereof  1 operations were pure point group operations)
 out of a pool of  8 trial point group operations.

The static configuration has the point symmetry C_1 .

Analysis of symmetry for dynamics (positions and initial velocities):
 Subroutine PRICEL returns following result:

[...]

The dynamic configuration has the point symmetry C_1 .

Analysis of constrained symmetry for selective dynamics:
 Subroutine PRICEL returns following result:

  LATTYP: Found a hexagonal cell.
 ALAT       =     4.8074510000
 C/A-ratio  =     4.4848271984

  Lattice vectors:

 A1 = (  -4.8074510000,   0.0000000000,   0.0000000000)
 A2 = (   2.4037255000,  -4.1633745000,   0.0000000000)
 A3 = (   0.0000000000,   0.0000000000,  21.5605870000)

   4 primitive cells build up your supercell.

 Routine SETGRP: Setting up the symmetry group for a
 simple orthorhombic supercell.

 Subroutine GETGRP returns: Found  1 space group operations
 (whereof  1 operations were pure point group operations)
 out of a pool of  8 trial point group operations.

The constrained configuration has the point symmetry C_1 .

 Subroutine INISYM returns: Found  1 space group operations
 (whereof  1 operations are pure point group operations),
 and found     4 'primitive' translations

                                     Primitive cell

  volume of cell :     431.5399

  direct lattice vectors                    reciprocal lattice vectors
    -4.807451000  0.000000000  0.000000000    -0.208010440 -0.120094889  0.000000000
     2.403725500 -4.163374500  0.000000000     0.000000000 -0.240189779  0.000000000
     0.000000000  0.000000000 21.560587000     0.000000000  0.000000000  0.046380926

  length of vectors
     4.807451000  4.807450832 21.560587000     0.240189770  0.240189779  0.046380926

[...]
  257        chggra                                0.147705                            5   3
  258          fft3d_mpi                             0.104775                         15   4
  259            fftbrc_mpi                            0.093713                       15   5
  260              fftbas_plan_mpi                       0.093705                     15   6
  261                map_forward                           0.000151                   20   7
  262                  map_scatter                           0.000034                 10   8
  263                map_backward                          0.000058                   10   7
  264                  map_gather                            0.000018                  5   8
  265          pothar                                0.005534                          5   4
  266        brmix                                 0.595308                            5   3
  267          brpre                                 0.006052                          5   4
  268          setg0                                 0.180026                          5   4
  269          broyd                                 0.174362                          5   4
  270            brget                                 0.022695                      350   5
  271            brsav                                 0.017164                       87   5
  272          m_bcast_z                             0.171255                          5   4
  273          m_bcast_d                             0.001733                          5   4
  274        m_bcast_d                             0.000141                           10   3
  275      potlok                                5.973913                              5   2
  276        fft3d_mpi                             2.069109                           65   3
  277          fftbrc_mpi                            1.645960                         65   4
  278            fftbas_plan_mpi                       1.645841                       65   5
  279              dfftw_execute                         1.044520                    195   6
  280              map_forward                           0.295538                     70   6
  281                map_scatter                           0.167074                   35   7
  282              map_backward                          0.297436                     60   6
  283                map_gather                            0.194043                   30   7
  284        ggaall_grid                           0.917207                            5   3
  285        pothar                                0.182808                            5   3
  286      potlok_metagga                        0.000003                              5   2
  287      set_dd_magatom                        0.000021                              5   2
  288      set_dd_paw                            0.139433                              5   2
  289        m_sumb_d                              0.044162                           35   3
  290      wavpre_noio                           2.626187                              4   2
  291        stufak                                0.835141                            4   3
  292      densta                                0.001497                              1   2
  293        m_sumb_d                              0.000138                           37   3

 Flat profile

 potlok                                 39.741809          71
 eddav                                  23.274567           9
 i2                                     18.070570       10282
 dfftw_execute                          17.234221        3345
 ggaall_grid                            14.147595          76
 rpromu_acc                             13.400620       17212
 eddiag                                 12.631774          61
 hamiltmu                               12.261231       11646
 i3                                     10.963952       10282
 total_time                             10.528488           1
 m_sumb_d                                9.470895        3712
 newband                                 8.200116       11786
 setdij_                                 8.029511         202
 fft3d_mpi                               7.228370       75078
 augmentation_charge                     4.057086          66
 fft3d                                   3.645937      221336
 orth1                                   3.523522        4590
 map_gather                              3.448622         593
 choleski                                3.177859         132
 raccmu_                                 2.911879       11646
 cnorma                                  2.781462      186909
 phaser                                  2.697153         270
 racc0mu_acc                             2.675669       11646
 pothar                                  2.602141          76
 map_scatter                             2.571790         537
 setg0                                   2.248845          71
 force_and_stress                        2.229289           5
 map_forward                             1.964364        1074
 map_backward                            1.824165        1186
 wavpre_noio                             1.791046           4
 rspher_all                              1.790774          66
 eccp                                    1.687104       87923
 m_bcast_z                               1.628901         147
 forhar                                  1.503079          10
 set_dd_paw                              1.441186          76
 lapack                                  1.317354        1364
 elmin                                   1.273982           5
 w1_gemv                                 1.175439      154800
 w1_copy                                 1.172832      154866
 stufak                                  1.056765           5
 fftwav                                  1.032313      147388
 w1_dot                                  1.009876       21917
 broyd                                   0.920083          66
 w1_dscal                                0.890051       95793
 overl_mu                                0.837382       11646
 brmix                                   0.820847          66
 forloc                                  0.752653           5
 lincom                                  0.725245         272
 w1_daxpy                                0.586504       80772
 orthch                                  0.532167          66
 init_hip                                0.471523           1
 set_charge                              0.466836          66
 eddrmm                                  0.353095          61
 w1_gaxpy                                0.322617       42371
 fftbas_plan_mpi                         0.285041        1130
 kinhamil                                0.281605       73948
 overl1                                  0.275180       38700
 fftext_mpi                              0.266125       73948
 soft_charge                             0.259933          66
 vhamil                                  0.258953       73948
 eccp_nl                                 0.257578      124606
 depsum                                  0.254964          66
 proall                                  0.237564           5
 apply_precond                           0.224202       71821
 fftwav_mpi                              0.214258      147388
 brget                                   0.204319        3154
 setup_precond                           0.164188       25620
 brsav                                   0.152522         859
 zhegv                                   0.151126       18469
 strnlr                                  0.126003           5
 overl                                   0.107528       18614
 densta                                  0.097917          71
 rpro_isp                                0.092419         130
 strelo                                  0.087853           5
 brpre                                   0.083771          66
 strkin                                  0.078720           5
 ggemm                                   0.075458        1778
 pw_charge                               0.064374       20200
 strehar                                 0.052676           5
 inisym                                  0.050083           1
 fornlr                                  0.038159           5
 chggra                                  0.037396           5
 m_bcast_d                               0.031246          97
 fft_gq                                  0.028147          66
 i1                                      0.021713       10282
 hamilt_local                            0.020998       22326
 rsp                                     0.018707           5
 hip_hipfft_makeplan                     0.014947           6
 brgrid                                  0.012011           1
 truncate_high_frequency_w1              0.011490       77242
 w1_projall                              0.010413       11232
 fftbrc_mpi                              0.001700        1130
 fewald                                  0.001645           5
 rcp                                     0.001541           5
 vectorpot                               0.000304          67
 set_dd_magatom                          0.000293          76
 hip_init_hipblas                        0.000196           1
 fordep                                  0.000193           5
 shift_bands_between_low_high            0.000086         122
 hip_init_rocsolver                      0.000068           1
 crpa_reader                             0.000063           1
 posmap                                  0.000055           2
 potlok_metagga                          0.000051          71
 rotate_active_occupied_orbital          0.000008           5
 hip_hipfft_makeplans                    0.000006           3
 redis_pw_over_bands                     0.000001           5
  summed up times    277.758951187134

 Accumulative profile

 total_time                            277.758951           1
 elmin                                 225.553055           5
 potlok                                 84.908446          71
 eddrmm                                 73.479283          61
 fft3d_mpi                              35.644138       75078
 eddav                                  31.129999           9
 fftbrc_mpi                             27.329902        1130
 fftbas_plan_mpi                        27.328202        1130
 force_and_stress                       25.913056           5
 i2                                     22.213503       10282
 hamiltmu                               20.026017       11646
 dfftw_execute                          17.234221        3345
 i3                                     17.154038       10282
 eddiag                                 14.378537          61
 ggaall_grid                            14.147595          76
 set_charge                             14.123462          66
 rpromu_acc                             13.400620       17212
 newband                                 9.692569       11786
 m_sumb_d                                9.470895        3712
 rpro_isp                                8.743972         130
 strnlr                                  8.356566           5
 setdij_                                 8.029511         202
 orthch                                  7.158948          66
 soft_charge                             7.030970          66
 raccmu_                                 6.424929       11646
 augmentation_charge                     6.297063          66
 brmix                                   6.086351          66
 w1_projall                              5.660140       11232
 map_backward                            5.272787        1186
 map_forward                             4.536154        1074
 fftwav_mpi                              3.806641      147388
 fft3d                                   3.645937      221336
 fftwav                                  3.592384      147388
 orth1                                   3.523522        4590
 map_gather                              3.448622         593
 choleski                                3.177859         132
 cnorma                                  3.039041      186909
 fornlr                                  2.778704           5
 phaser                                  2.697153         270
 racc0mu_acc                             2.675669       11646
 wavpre_noio                             2.626187           4
 pothar                                  2.602141          76
 map_scatter                             2.571790         537
 set_dd_paw                              2.328029          76
 setg0                                   2.248845          71
 rspher_all                              1.790774          66
 eccp                                    1.687104       87923
 kinhamil                                1.673318       73948
 m_bcast_z                               1.628901         147
 forhar                                  1.503079          10
 w1_gemv                                 1.450619      154800
 fftext_mpi                              1.391713       73948
 proall                                  1.378878           5
 lapack                                  1.317354        1364
 broyd                                   1.276923          66
 fordep                                  1.191574           5
 w1_copy                                 1.172832      154866
 stufak                                  1.056765           5
 w1_dot                                  1.009876       21917
 w1_dscal                                0.890051       95793
 overl_mu                                0.837382       11646
 forloc                                  0.752653           5
 lincom                                  0.725245         272
 fft_gq                                  0.614292          66
 hamilt_local                            0.613412       22326
 w1_daxpy                                0.586504       80772
 init_hip                                0.471523           1
 depsum                                  0.328593          66
 w1_gaxpy                                0.322617       42371
 i1                                      0.294618       10282
 overl1                                  0.275180       38700
 vhamil                                  0.258953       73948
 eccp_nl                                 0.257578      124606
 apply_precond                           0.224202       71821
 brget                                   0.204319        3154
 setup_precond                           0.164188       25620
 brsav                                   0.152522         859
 zhegv                                   0.151126       18469
 fewald                                  0.148996           5
 chggra                                  0.147705           5
 overl                                   0.107528       18614
 densta                                  0.107421          71
 strelo                                  0.087853           5
 brpre                                   0.083771          66
 strkin                                  0.082737           5
 ggemm                                   0.075458        1778
 pw_charge                               0.064374       20200
 strehar                                 0.052676           5
 inisym                                  0.050138           1
 m_bcast_d                               0.031246          97
 rsp                                     0.018707           5
 hip_hipfft_makeplans                    0.014953           3
 hip_hipfft_makeplan                     0.014947           6
 brgrid                                  0.012011           1
 truncate_high_frequency_w1              0.011490       77242
 rcp                                     0.001541           5
 vectorpot                               0.000304          67
 set_dd_magatom                          0.000293          76
 hip_init_hipblas                        0.000196           1
 shift_bands_between_low_high            0.000086         122
 hip_init_rocsolver                      0.000068           1
 crpa_reader                             0.000063           1
 posmap                                  0.000055           2
 potlok_metagga                          0.000051          71
 rotate_active_occupied_orbital          0.000008           5
 redis_pw_over_bands                     0.000001           5

Profiling took   0.395398  0.238441  0.002943  0.002793 seconds
Profiling took   0.302929 seconds