 vasp.6.3.2 27Jun22 (build Mar 15 2023 15:45:48) complex

 executed on             LinuxIFC date 2024.07.17  02:13:35

 INCAR:
   SYSTEM = ni3al
   PREC = Accurate
   EDIFF = 1E-6
   EDIFFG = -1E-2
   ISTART = 0
   ICHARG = 2
   LREAL = Auto
   NSW = 300
   ISIF = 2
   IBRION = 2
   ISMEAR = 0
   SIGMA = 0.1
   ENCUT = 530
   ALGO = Fast
   LMAXMIX = 4
   AMIN = 0.01
   NELM = 150
   LCHARG = .FALSE.
   LWAVE = .FALSE.
   KPAR = 8

 POTCAR:   PAW_PBE C 08Apr2002
 POTCAR:   PAW_PBE Si 05Jan2001
 POTCAR:   PAW_PBE C 08Apr2002
   VRHFIN =C: s2p2

   TITEL  = PAW_PBE C 08Apr2002
   POMASS =   12.011; ZVAL   =    4.000    mass and valenz
   ENMAX  =  400.000; ENMIN  =  300.000 eV
   QCUT   =   -5.516; QGAM   =   11.032    optimization parameters

   Description
     l     E      TYP  RCUT    TYP  RCUT
     0   .000     23  1.200
     0   .000     23  1.200
     1   .000     23  1.500
     1  2.500     23  1.500
     2   .000      7  1.500

 POTCAR:   PAW_PBE Si 05Jan2001
   VRHFIN =Si: s2p2

   TITEL  = PAW_PBE Si 05Jan2001
   POMASS =   28.085; ZVAL   =    4.000    mass and valenz
   ENMAX  =  245.345; ENMIN  =  184.009 eV
   QCUT   =   -4.246; QGAM   =    8.493    optimization parameters

   Description
     l     E      TYP  RCUT    TYP  RCUT
     0   .000     23  1.900
     0   .000     23  1.900
     1   .000     23  1.900
     1   .000     23  1.900
     2   .000      7  1.900

 Optimization of the real space projectors (new method)

 maximal supplied QI-value         = 25.13
 optimisation between [QCUT,QGAM] = [ 11.56, 23.37] = [ 37.43,152.99] Ry
 Optimized for a Real-space Cutoff    1.07 Angstroem

   l    n(q)    QCUT    max X(q) W(low)/X(q) W(high)/X(q)  e(spline)
   0      7    11.561     5.582    0.43E-04    0.82E-04    0.19E-07
   0      7    11.561    69.432    0.18E-03    0.47E-03    0.23E-06
   1      7    11.561     2.780    0.18E-04    0.55E-04    0.48E-07
   1      7    11.561     4.549    0.18E-03    0.21E-03    0.13E-06
 Optimization of the real space projectors (new method)

 maximal supplied QI-value         = 19.84
 optimisation between [QCUT,QGAM] = [ 11.71, 23.41] = [ 38.38,153.51] Ry
 Optimized for a Real-space Cutoff    1.20 Angstroem

   l    n(q)    QCUT    max X(q) W(low)/X(q) W(high)/X(q)  e(spline)
   0      8    11.707     8.708    0.17E-04    0.67E-05    0.45E-08
   0      8    11.707   106.241    0.59E-04    0.18E-03    0.53E-07
   1      8    11.707     5.901    0.60E-05    0.19E-04    0.21E-07
   1      8    11.707    73.241    0.22E-03    0.21E-04    0.75E-07
 PAW_PBE C 08Apr2002                    :
 PAW_PBE Si 05Jan2001                   :

 POSCAR: POSCAR
  positions in direct lattice
 exchange correlation table for  LEXCH =        8
   RHO(1)=    0.500       N(1)  =     2000
   RHO(2)=  100.500       N(2)  =     4000

 VTST: version 4.2, (08/11/21)

 CHAIN: initializing optimizer

 OPT: Using VASP Conjugate-Gradient optimizer
 CHAIN: Read ICHAIN            0

 POSCAR: POSCAR
  positions in direct lattice

 ion  position               nearest neighbor table
   1  0.000  0.000  0.312-  56 1.89  72 1.89  79 1.89  51 1.90
   2  0.167  0.250  0.312-  63 1.89  55 1.89  56 1.89  52 1.90
   3  0.000  0.333  0.451-  52 1.90  68 1.90  75 1.90
   4  0.167  0.083  0.451-  59 1.90  51 1.90  52 1.90
   5  0.000  0.167  0.035-  49 1.90  50 1.90  66 1.90  53 1.90
   6  0.167  0.417  0.035-  50 1.90  81 1.90  73 1.90  54 1.90
   7  0.000  0.333  0.174-  54 1.89  70 1.89  53 1.89  55 1.90
   8  0.167  0.083  0.174-  61 1.89  53 1.89  78 1.89  56 1.90
   9  0.333  0.000  0.312-  56 1.89  64 1.89  87 1.89  59 1.90
  10  0.500  0.250  0.312-  71 1.89  64 1.89  63 1.89  60 1.90
  11  0.333  0.333  0.451-  83 1.90  52 1.90  60 1.90
  12  0.500  0.083  0.451-  59 1.90  67 1.90  60 1.90
  13  0.333  0.167  0.035-  57 1.90  50 1.90  58 1.90  61 1.90
  14  0.500  0.417  0.035-  58 1.90  81 1.90  89 1.90  62 1.90
  15  0.333  0.333  0.174-  54 1.89  62 1.89  61 1.89  63 1.90
  16  0.500  0.083  0.174-  61 1.89  69 1.89  86 1.89  64 1.90
  17  0.667  0.000  0.312-  72 1.89  64 1.89  95 1.89  67 1.90
  18  0.833  0.250  0.312-  71 1.89  55 1.89  72 1.89  68 1.90
  19  0.667  0.333  0.451-  68 1.90  60 1.90  91 1.90
  20  0.833  0.083  0.451-  67 1.90  51 1.90  68 1.90
  21  0.667  0.167  0.035-  65 1.90  66 1.90  58 1.90  69 1.90
  22  0.833  0.417  0.035-  66 1.90  89 1.90  73 1.90  70 1.90
  23  0.667  0.333  0.174-  70 1.89  62 1.89  69 1.89  71 1.90
  24  0.833  0.083  0.174-  69 1.89  53 1.89  94 1.89  72 1.90
  25  0.000  0.500  0.312-  80 1.89  96 1.89  55 1.89  75 1.90
  26  0.167  0.750  0.312-  87 1.89  79 1.89  80 1.89  76 1.90
  27  0.000  0.833  0.451-  76 1.90  92 1.90  51 1.90
  28  0.167  0.583  0.451-  83 1.90  75 1.90  76 1.90
  29  0.000  0.667  0.035-  73 1.90  74 1.90  90 1.90  77 1.90
  30  0.167  0.917  0.035-  74 1.90  57 1.90  49 1.90  78 1.90
  31  0.000  0.833  0.174-  78 1.89  94 1.89  77 1.89  79 1.90
  32  0.167  0.583  0.174-  85 1.89  77 1.89  54 1.89  80 1.90
  33  0.333  0.500  0.312-  63 1.89  80 1.89  88 1.89  83 1.90
  34  0.500  0.750  0.312-  87 1.89  95 1.89  88 1.89  84 1.90
  35  0.333  0.833  0.451-  76 1.90  84 1.90  59 1.90
  36  0.500  0.583  0.451-  83 1.90  91 1.90  84 1.90
  37  0.333  0.667  0.035-  81 1.90  74 1.90  82 1.90  85 1.90
  38  0.500  0.917  0.035-  82 1.90  65 1.90  57 1.90  86 1.90
  39  0.333  0.833  0.174-  78 1.89  86 1.89  85 1.89  87 1.90
  40  0.500  0.583  0.174-  85 1.89  93 1.89  62 1.89  88 1.90
  41  0.667  0.500  0.312-  96 1.89  88 1.89  71 1.89  91 1.90
  42  0.833  0.750  0.312-  95 1.89  79 1.89  96 1.89  92 1.90
  43  0.667  0.833  0.451-  92 1.90  84 1.90  67 1.90
  44  0.833  0.583  0.451-  91 1.90  75 1.90  92 1.90
  45  0.667  0.667  0.035-  89 1.90  90 1.90  82 1.90  93 1.90
  46  0.833  0.917  0.035-  90 1.90  65 1.90  49 1.90  94 1.90
  47  0.667  0.833  0.174-  94 1.89  86 1.89  93 1.89  95 1.90
  48  0.833  0.583  0.174-  93 1.89  77 1.89  70 1.89  96 1.90
  49  0.000  0.000  0.000-   5 1.90  30 1.90  46 1.90  57 3.09  65 3.09  50 3.09  66 3.09  74 3.09
                            90 3.09  53 3.10  78 3.10  94 3.10
  50  0.167  0.250  0.000-   6 1.90  13 1.90   5 1.90  57 3.09  81 3.09  58 3.09  73 3.09  49 3.09
                            66 3.09  54 3.10  61 3.10  53 3.10
  51  0.000  0.000  0.417-   4 1.90  20 1.90  27 1.90   1 1.90  59 3.09  67 3.09  52 3.09  68 3.09
                            76 3.09  92 3.09  56 3.10  72 3.10  79 3.10
  52  0.167  0.250  0.417-  11 1.90   3 1.90   4 1.90   2 1.90  59 3.09  83 3.09  60 3.09  75 3.09
                            51 3.09  68 3.09  63 3.10  55 3.10  56 3.10
  53  0.000  0.167  0.139-   8 1.89  24 1.89   7 1.89   5 1.90  61 3.09  69 3.09  54 3.09  70 3.09
                            78 3.09  94 3.09  56 3.10  72 3.10  55 3.10  49 3.10  66 3.10  50 3.10
  54  0.167  0.417  0.139-  15 1.89   7 1.89  32 1.89   6 1.90  61 3.09  85 3.09  62 3.09  77 3.09
                            53 3.09  70 3.09  63 3.10  55 3.10  80 3.10  50 3.10  81 3.10  73 3.10
  55  0.000  0.333  0.278-   2 1.89  18 1.89  25 1.89   7 1.90  71 3.09  63 3.09  56 3.09  72 3.09
                            80 3.09  96 3.09  54 3.10  70 3.10  53 3.10  68 3.10  52 3.10  75 3.10
  56  0.167  0.083  0.278-   9 1.89   1 1.89   2 1.89   8 1.90  87 3.09  64 3.09  79 3.09  55 3.09
                            63 3.09  72 3.09  61 3.10  53 3.10  78 3.10  59 3.10  51 3.10  52 3.10
  57  0.333  0.000  0.000-  13 1.90  30 1.90  38 1.90  50 3.09  74 3.09  49 3.09  58 3.09  82 3.09
                            65 3.09  61 3.10  78 3.10  86 3.10
  58  0.500  0.250  0.000-  14 1.90  13 1.90  21 1.90  50 3.09  66 3.09  65 3.09  57 3.09  81 3.09
                            89 3.09  62 3.10  61 3.10  69 3.10
  59  0.333  0.000  0.417-   4 1.90  12 1.90  35 1.90   9 1.90  52 3.09  76 3.09  51 3.09  60 3.09
                            84 3.09  67 3.09  56 3.10  64 3.10  87 3.10
  60  0.500  0.250  0.417-  19 1.90  12 1.90  11 1.90  10 1.90  52 3.09  68 3.09  67 3.09  59 3.09
                            83 3.09  91 3.09  71 3.10  64 3.10  63 3.10
  61  0.333  0.167  0.139-   8 1.89  16 1.89  15 1.89  13 1.90  54 3.09  78 3.09  53 3.09  62 3.09
                            86 3.09  69 3.09  56 3.10  64 3.10  63 3.10  57 3.10  50 3.10  58 3.10
  62  0.500  0.417  0.139-  15 1.89  23 1.89  40 1.89  14 1.90  54 3.09  70 3.09  69 3.09  61 3.09
                            85 3.09  93 3.09  63 3.10  71 3.10  88 3.10  58 3.10  89 3.10  81 3.10
  63  0.333  0.333  0.278-  33 1.89   2 1.89  10 1.89  15 1.90  80 3.09  88 3.09  55 3.09  56 3.09
                            71 3.09  64 3.09  54 3.10  62 3.10  61 3.10  83 3.10  52 3.10  60 3.10
  64  0.500  0.083  0.278-   9 1.89  17 1.89  10 1.89  16 1.90  56 3.09  72 3.09  71 3.09  87 3.09
                            95 3.09  63 3.09  61 3.10  69 3.10  86 3.10  59 3.10  67 3.10  60 3.10
  65  0.667  0.000  0.000-  21 1.90  46 1.90  38 1.90  66 3.09  90 3.09  49 3.09  82 3.09  58 3.09
                            57 3.09  69 3.10  94 3.10  86 3.10
  66  0.833  0.250  0.000-  22 1.90  21 1.90   5 1.90  65 3.09  89 3.09  58 3.09  73 3.09  49 3.09
                            50 3.09  70 3.10  69 3.10  53 3.10
  67  0.667  0.000  0.417-  20 1.90  12 1.90  43 1.90  17 1.90  68 3.09  92 3.09  51 3.09  84 3.09
                            60 3.09  59 3.09  72 3.10  64 3.10  95 3.10
  68  0.833  0.250  0.417-  19 1.90   3 1.90  20 1.90  18 1.90  67 3.09  91 3.09  60 3.09  75 3.09
                            51 3.09  52 3.09  71 3.10  55 3.10  72 3.10
  69  0.667  0.167  0.139-  24 1.89  16 1.89  23 1.89  21 1.90  70 3.09  94 3.09  53 3.09  86 3.09
                            62 3.09  61 3.09  72 3.10  64 3.10  71 3.10  65 3.10  66 3.10  58 3.10
  70  0.833  0.417  0.139-  23 1.89   7 1.89  48 1.89  22 1.90  69 3.09  93 3.09  62 3.09  77 3.09
                            53 3.09  54 3.09  71 3.10  55 3.10  96 3.10  66 3.10  89 3.10  73 3.10
  71  0.667  0.333  0.278-  18 1.89  10 1.89  41 1.89  23 1.90  72 3.09  96 3.09  55 3.09  88 3.09
                            64 3.09  63 3.09  70 3.10  62 3.10  69 3.10  68 3.10  60 3.10  91 3.10
  72  0.833  0.083  0.278-  17 1.89   1 1.89  18 1.89  24 1.90  71 3.09  95 3.09  64 3.09  79 3.09
                            55 3.09  56 3.09  69 3.10  53 3.10  94 3.10  67 3.10  51 3.10  68 3.10
  73  0.000  0.500  0.000-  29 1.90  22 1.90   6 1.90  81 3.09  89 3.09  74 3.09  50 3.09  66 3.09
                            90 3.09  77 3.10  70 3.10  54 3.10
  74  0.167  0.750  0.000-  30 1.90  37 1.90  29 1.90  57 3.09  81 3.09  82 3.09  49 3.09  73 3.09
                            90 3.09  78 3.10  85 3.10  77 3.10
  75  0.000  0.500  0.417-  28 1.90  44 1.90   3 1.90  25 1.90  83 3.09  91 3.09  76 3.09  52 3.09
                            68 3.09  92 3.09  80 3.10  96 3.10  55 3.10
  76  0.167  0.750  0.417-  35 1.90  27 1.90  28 1.90  26 1.90  59 3.09  83 3.09  84 3.09  51 3.09
                            75 3.09  92 3.09  87 3.10  79 3.10  80 3.10
  77  0.000  0.667  0.139-  32 1.89  48 1.89  31 1.89  29 1.90  85 3.09  93 3.09  78 3.09  54 3.09
[...]
  257        chggra                                0.236140                           10   3
  258          fft3d_mpi                             0.143863                         30   4
  259            fftbrc_mpi                            0.121474                       30   5
  260              fftbas_plan_mpi                       0.121453                     30   6
  261                map_forward                           0.000278                   40   7
  262                  map_scatter                           0.000079                 20   8
  263                map_backward                          0.000109                   20   7
  264                  map_gather                            0.000033                 10   8
  265          pothar                                0.011522                         10   4
  266        brmix                                 1.148690                           10   3
  267          brpre                                 0.012898                         10   4
  268          setg0                                 0.377296                         10   4
  269          broyd                                 0.270026                         10   4
  270            brget                                 0.036948                      525   5
  271            brsav                                 0.025666                      139   5
  272          m_bcast_z                             0.338160                         10   4
  273          m_bcast_d                             0.019307                         10   4
  274        m_bcast_d                             0.000284                           20   3
  275      potlok                               13.040534                             10   2
  276        fft3d_mpi                             4.458502                          130   3
  277          fftbrc_mpi                            3.618524                        130   4
  278            fftbas_plan_mpi                       3.618331                      130   5
  279              dfftw_execute                         2.325986                    390   6
  280              map_forward                           0.639225                    140   6
  281                map_scatter                           0.370666                   70   7
  282              map_backward                          0.636909                    120   6
  283                map_gather                            0.420699                   60   7
  284        ggaall_grid                           2.339619                           10   3
  285        pothar                                0.384930                           10   3
  286      potlok_metagga                        0.000008                             10   2
  287      set_dd_magatom                        0.000046                             10   2
  288      set_dd_paw                            0.312538                             10   2
  289        m_sumb_d                              0.065114                           70   3
  290      wavpre_noio                           7.125147                              9   2
  291        stufak                                2.939017                            9   3
  292      densta                                0.002250                              1   2
  293        m_sumb_d                              0.000129                           41   3

 Flat profile

 i2                                     70.681090       19530
 hamiltmu                               69.615209       22295
 eddav                                  64.680519          14
 rpromu_acc                             64.128021       37287
 eddiag                                 62.757513          87
 potlok                                 62.689908         107
 newband                                39.113771       22497
 m_sumb_d                               35.652821        5532
 dfftw_execute                          29.336912        5115
 ggaall_grid                            27.129904         117
 i3                                     22.901371       19530
 set_charge                             20.730088          97
 setdij_                                20.368079         368
 fft3d                                  16.425333      437735
 total_time                             11.047846           1
 fft3d_mpi                              10.875990      142440
 augmentation_charge                     7.612422          97
 racc0mu_acc                             6.676215       22295
 phaser                                  6.247370         462
 raccmu_                                 6.005930       22295
 map_gather                              5.740689         906
 cnorma                                  5.374854      344853
 choleski                                5.140305         194
 rspher_all                              4.817259         131
 force_and_stress                        4.787350          10
 map_scatter                             4.420949         829
 wavpre_noio                             4.186130           9
 pothar                                  4.123964         117
 orth1                                   3.587986        9185
 setg0                                   3.529028         107
 eccp                                    3.413319      163633
 stufak                                  3.273232          10
 map_forward                             3.147149        1658
 map_backward                            2.915788        1812
 set_dd_paw                              2.894741         117
 elmin                                   2.791251          10
 w1_copy                                 2.488753      296313
 lapack                                  2.486269        2765
 w1_gemv                                 2.452797      302404
 forhar                                  2.419693          20
 m_bcast_z                               2.415970         219
 fftwav                                  2.219481      297030
 w1_dot                                  1.936337       39662
 w1_dscal                                1.738870      182170
 overl_mu                                1.690039       22295
 forloc                                  1.615820          10
 lincom                                  1.500823         396
 broyd                                   1.453302          97
 orthch                                  1.400244          97
 brmix                                   1.294628          97
 w1_daxpy                                1.244537      150578
 w1_gaxpy                                0.688097       85464
 proall                                  0.642942          10
 kinhamil                                0.587298      140705
 eddrmm                                  0.583781          87
 overl1                                  0.568222       75601
 fftext_mpi                              0.554375      140705
 vhamil                                  0.531131      140705
 eccp_nl                                 0.495573      229902
 depsum                                  0.480747          97
 apply_precond                           0.466246      139588
 init_hip                                0.464252           1
 fftwav_mpi                              0.453605      297030
 fftbas_plan_mpi                         0.451070        1735
 strnlr                                  0.349163          10
 setup_precond                           0.344119       48682
 zhegv                                   0.326769       35627
 soft_charge                             0.319644          97
 brget                                   0.311206        4418
 overl                                   0.281773       36040
 rpro_isp                                0.242524         260
 densta                                  0.208266         102
 strkin                                  0.208002          10
 brsav                                   0.201167        1220
 strelo                                  0.191602          10
 ggemm                                   0.168734        3633
 brpre                                   0.125065          97
 pw_charge                               0.119918       39541
 fornlr                                  0.109354          10
 strehar                                 0.102434          10
 chggra                                  0.080756          10
 rsp                                     0.068439          10
 inisym                                  0.053319           1
 m_bcast_d                               0.043984         158
 fft_gq                                  0.042519          97
 i1                                      0.040413       19530
 hamilt_local                            0.038638       41934
 w1_projall                              0.031431       21427
 hip_hipfft_makeplan                     0.020905           6
 truncate_high_frequency_w1              0.020563      147453
 brgrid                                  0.012030           1
 rcp                                     0.004711          10
 fftbrc_mpi                              0.002448        1735
 fewald                                  0.001913          10
 posmap                                  0.000750           2
 vectorpot                               0.000568          98
 set_dd_magatom                          0.000485         117
 fordep                                  0.000450          10
 hip_init_hipblas                        0.000199           1
 hip_init_rocsolver                      0.000180           1
 shift_bands_between_low_high            0.000120         174
 potlok_metagga                          0.000086         107
 crpa_reader                             0.000058           1
 rotate_active_occupied_orbital          0.000012          10
 hip_hipfft_makeplans                    0.000007           3
 redis_pw_over_bands                     0.000001          10
  summed up times    758.219937086105

 Accumulative profile

 total_time                            758.219937           1
 elmin                                 616.632105          10
 eddrmm                                241.642535          87
 potlok                                139.473931         107
 force_and_stress                       98.143620          10
 eddav                                  95.609709          14
 hamiltmu                               88.937572       22295
 i2                                     80.693887       19530
 eddiag                                 68.183557          87
 set_charge                             66.516519          97
 rpromu_acc                             64.128021       37287
 fft3d_mpi                              62.160772      142440
 rpro_isp                               54.793934         260
 fftbrc_mpi                             46.015005        1735
 fftbas_plan_mpi                        46.012557        1735
 strnlr                                 44.569062          10
 newband                                43.203031       22497
 m_sumb_d                               35.652821        5532
 i3                                     35.033191       19530
 soft_charge                            33.718763          97
 dfftw_execute                          29.336912        5115
 ggaall_grid                            27.129904         117
 setdij_                                20.368079         368
 fft3d                                  16.425333      437735
 fornlr                                 14.802850          10
 raccmu_                                14.372184       22295
 fftwav_mpi                             13.828642      297030
 fftwav                                 13.375036      297030
 w1_projall                             12.734578       21427
 augmentation_charge                    11.204324          97
 orthch                                  9.745505          97
 brmix                                   9.367892          97
 map_backward                            8.656477        1812
 map_forward                             7.568097        1658
 wavpre_noio                             7.125147           9
 racc0mu_acc                             6.676215       22295
 kinhamil                                6.488368      140705
 phaser                                  6.247370         462
 fftext_mpi                              5.901070      140705
 cnorma                                  5.870427      344853
 map_gather                              5.740689         906
 proall                                  5.239923          10
 choleski                                5.140305         194
 rspher_all                              4.817259         131
 map_scatter                             4.420949         829
 pothar                                  4.123964         117
 set_dd_paw                              3.926855         117
 orth1                                   3.587986        9185
 setg0                                   3.529028         107
 eccp                                    3.413319      163633
 fordep                                  3.320731          10
 stufak                                  3.273232          10
 w1_gemv                                 3.021020      302404
 w1_copy                                 2.488753      296313
 lapack                                  2.486269        2765
 forhar                                  2.419693          20
 m_bcast_z                               2.415970         219
 hamilt_local                            2.107958       41934
 broyd                                   1.965676          97
 w1_dot                                  1.936337       39662
 w1_dscal                                1.738870      182170
 overl_mu                                1.690039       22295
 forloc                                  1.615820          10
 lincom                                  1.500823         396
 w1_daxpy                                1.244537      150578
 depsum                                  0.863343          97
 fft_gq                                  0.813001          97
 w1_gaxpy                                0.688097       85464
 i1                                      0.623325       19530
 overl1                                  0.568222       75601
 vhamil                                  0.531131      140705
 eccp_nl                                 0.495573      229902
 apply_precond                           0.466246      139588
 init_hip                                0.464252           1
 setup_precond                           0.344119       48682
 zhegv                                   0.326769       35627
 brget                                   0.311206        4418
 overl                                   0.281773       36040
 chggra                                  0.236140          10
 densta                                  0.221563         102
 strkin                                  0.211985          10
 brsav                                   0.201167        1220
 strelo                                  0.191602          10
 ggemm                                   0.168734        3633
 brpre                                   0.125065          97
 pw_charge                               0.119918       39541
 strehar                                 0.102434          10
 fewald                                  0.076919          10
 rsp                                     0.068439          10
 inisym                                  0.054069           1
 m_bcast_d                               0.043984         158
 hip_hipfft_makeplans                    0.020912           3
 hip_hipfft_makeplan                     0.020905           6
 truncate_high_frequency_w1              0.020563      147453
 brgrid                                  0.012030           1
 rcp                                     0.004711          10
 posmap                                  0.000750           2
 vectorpot                               0.000568          98
 set_dd_magatom                          0.000485         117
 hip_init_hipblas                        0.000199           1
 hip_init_rocsolver                      0.000180           1
 shift_bands_between_low_high            0.000120         174
 potlok_metagga                          0.000086         107
 crpa_reader                             0.000058           1
 rotate_active_occupied_orbital          0.000012          10
 redis_pw_over_bands                     0.000001          10

Profiling took   0.776442  0.467651  0.002883  0.002732 seconds
Profiling took   0.573364 seconds