 vasp.6.3.2 27Jun22 (build Mar 15 2023 15:45:48) complex

 executed on             LinuxIFC date 2024.07.14  12:07:21

 INCAR:
   SYSTEM = ni3al
   PREC = Accurate
   EDIFF = 1E-6
   EDIFFG = -1E-2
   ISTART = 0
   ICHARG = 2
   LREAL = Auto
   NSW = 300
   ISIF = 3
   IBRION = 2
   ISMEAR = 0
   SIGMA = 0.1
   ENCUT = 530
   ALGO = Fast
   LMAXMIX = 4
   AMIN = 0.01
   NELM = 150
   LCHARG = .FALSE.
   LWAVE = .FALSE.
   KPAR = 8

 POTCAR:   PAW_PBE Si 05Jan2001
 POTCAR:   PAW_PBE C 08Apr2002
 POTCAR:   PAW_PBE Si 05Jan2001
   VRHFIN =Si: s2p2

   TITEL  = PAW_PBE Si 05Jan2001
   POMASS =   28.085; ZVAL   =    4.000    mass and valenz
   ENMAX  =  245.345; ENMIN  =  184.009 eV
   QCUT   =   -4.246; QGAM   =    8.493    optimization parameters

   Description
     l     E      TYP  RCUT    TYP  RCUT
     0   .000     23  1.900
     0   .000     23  1.900
     1   .000     23  1.900
     1   .000     23  1.900
     2   .000      7  1.900

 POTCAR:   PAW_PBE C 08Apr2002
   VRHFIN =C: s2p2

   TITEL  = PAW_PBE C 08Apr2002
   POMASS =   12.011; ZVAL   =    4.000    mass and valenz
   ENMAX  =  400.000; ENMIN  =  300.000 eV
   QCUT   =   -5.516; QGAM   =   11.032    optimization parameters

   Description
     l     E      TYP  RCUT    TYP  RCUT
     0   .000     23  1.200
     0   .000     23  1.200
     1   .000     23  1.500
     1  2.500     23  1.500
     2   .000      7  1.500

 Optimization of the real space projectors (new method)

 maximal supplied QI-value         = 19.84
 optimisation between [QCUT,QGAM] = [ 11.71, 23.41] = [ 38.38,153.51] Ry
 Optimized for a Real-space Cutoff    1.20 Angstroem

   l    n(q)    QCUT    max X(q) W(low)/X(q) W(high)/X(q)  e(spline)
   0      8    11.707     8.708    0.17E-04    0.67E-05    0.45E-08
   0      8    11.707   106.241    0.59E-04    0.18E-03    0.53E-07
   1      8    11.707     5.901    0.60E-05    0.19E-04    0.21E-07
   1      8    11.707    73.241    0.22E-03    0.21E-04    0.75E-07
 Optimization of the real space projectors (new method)

 maximal supplied QI-value         = 25.13
 optimisation between [QCUT,QGAM] = [ 11.56, 23.37] = [ 37.43,152.99] Ry
 Optimized for a Real-space Cutoff    1.07 Angstroem

   l    n(q)    QCUT    max X(q) W(low)/X(q) W(high)/X(q)  e(spline)
   0      7    11.561     5.582    0.43E-04    0.82E-04    0.19E-07
   0      7    11.561    69.432    0.18E-03    0.47E-03    0.23E-06
   1      7    11.561     2.780    0.18E-04    0.55E-04    0.48E-07
   1      7    11.561     4.549    0.18E-03    0.21E-03    0.13E-06
 PAW_PBE Si 05Jan2001                   :
 PAW_PBE C 08Apr2002                    :

 POSCAR: Si6 C6
  positions in direct lattice
 exchange correlation table for  LEXCH =        8
   RHO(1)=    0.500       N(1)  =     2000
   RHO(2)=  100.500       N(2)  =     4000

 VTST: version 4.2, (08/11/21)

 CHAIN: initializing optimizer

 OPT: Using VASP Conjugate-Gradient optimizer
 CHAIN: Read ICHAIN            0

 POSCAR: Si6 C6
  positions in direct lattice

 ion  position               nearest neighbor table
   1  0.000  0.000  0.500-  10 1.89  10 1.89  10 1.89   7 1.89   6 3.08   6 3.08   6 3.08   4 3.08
                             4 3.08   4 3.08
   2  0.000  0.000  1.000-   9 1.89   9 1.89   9 1.89   8 1.89   5 3.08   5 3.08   5 3.08   3 3.08
                             3 3.08   3 3.08
   3  0.333  0.667  0.167-  12 1.88  12 1.88  12 1.88   9 1.89   6 3.08   6 3.08   6 3.08   2 3.08
                             2 3.08   2 3.08
   4  0.667  0.333  0.667-  11 1.88  11 1.88  11 1.88  10 1.89   5 3.08   5 3.08   5 3.08   1 3.08
                             1 3.08   1 3.08
   5  0.333  0.667  0.833-   8 1.88   8 1.88   8 1.88  11 1.89   4 3.08   4 3.08   4 3.08   2 3.08
                             2 3.08   2 3.08
   6  0.667  0.333  0.333-   7 1.88   7 1.88   7 1.88  12 1.89   3 3.08   3 3.08   3 3.08   1 3.08
                             1 3.08   1 3.08
   7  0.000  0.000  0.374-   6 1.88   6 1.88   6 1.88   1 1.89
   8  0.000  0.000  0.874-   5 1.88   5 1.88   5 1.88   2 1.89
   9  0.333  0.667  0.042-   2 1.89   2 1.89   2 1.89   3 1.89
  10  0.667  0.333  0.542-   1 1.89   1 1.89   1 1.89   4 1.89
  11  0.333  0.667  0.708-   4 1.88   4 1.88   4 1.88   5 1.89
  12  0.667  0.333  0.208-   3 1.88   3 1.88   3 1.88   6 1.89

  LATTYP: Found a hexagonal cell.
 ALAT       =     3.0766210556
 C/A-ratio  =     4.9073591375

  Lattice vectors:

 A1 = (   3.0766210556,   0.0000000000,   0.0000000000)
 A2 = (  -1.5383105278,   2.6644319920,   0.0000000000)
 A3 = (   0.0000000000,   0.0000000000,  15.0980844498)

Analysis of symmetry for initial positions (statically):
 Subroutine PRICEL returns:
 Original cell was already a primitive cell.

 Routine SETGRP: Setting up the symmetry group for a
 hexagonal supercell.

 Subroutine GETGRP returns: Found 12 space group operations
 (whereof  6 operations were pure point group operations)
 out of a pool of 24 trial point group operations.

The static configuration has the point symmetry C_3v.
 The point group associated with its full space group is C_6v.

Analysis of symmetry for dynamics (positions and initial velocities):
 Subroutine PRICEL returns:
 Original cell was already a primitive cell.

 Routine SETGRP: Setting up the symmetry group for a
 hexagonal supercell.

 Subroutine GETGRP returns: Found 12 space group operations
 (whereof  6 operations were pure point group operations)
 out of a pool of 24 trial point group operations.

The dynamic configuration has the point symmetry C_3v.
 The point group associated with its full space group is C_6v.

 Subroutine INISYM returns: Found 12 space group operations
 (whereof  6 operations are pure point group operations),
 and found     1 'primitive' translations

                                     Primitive cell

  volume of cell :     123.7658

  direct lattice vectors                    reciprocal lattice vectors
     3.076621056  0.000000000  0.000000000     0.325031904  0.187657257  0.000000000
    -1.538310528  2.664431992  0.000000000     0.000000000  0.375314515  0.000000000
     0.000000000  0.000000000 15.098084450     0.000000000  0.000000000  0.066233568

  length of vectors
     3.076621056  3.076621056 15.098084450     0.375314515  0.375314515  0.066233568

  position of ions in fractional coordinates (direct lattice)
     0.000000000  0.000000000  0.499729420
     0.000000000  0.000000000  0.999729420
     0.333333343  0.666666687  0.166500600
     0.666666657  0.333333313  0.666500600
     0.333333343  0.666666687  0.832986150
     0.666666657  0.333333313  0.332986150
     0.000000000  0.000000000  0.374366410
     0.000000000  0.000000000  0.874366410
     0.333333343  0.666666687  0.041521640
     0.666666657  0.333333313  0.541521640
     0.333333343  0.666666687  0.707996780
     0.666666657  0.333333313  0.207996780

  ion indices of the primitive-cell ions
   primitive index   ion index
                 1           1
                 2           2
                 3           3
                 4           4
                 5           5
                 6           6
                 7           7
                 8           8
                 9           9
                10          10
                11          11
                12          12

 KPOINTS: K-Spacing Value to Generate K-Mesh: 0.02

Automatic generation of k-mesh.
 Grid dimensions read from file:
 generate k-points for:   21   21    3

 Generating k-lattice:

  Cartesian coordinates                     Fractional coordinates (reciprocal lattice)
     0.015477710  0.008936060  0.000000000     0.047619048 -0.000000000  0.000000000
     0.000000000  0.017872120  0.000000000     0.000000000  0.047619048  0.000000000
     0.000000000  0.000000000  0.022077856     0.000000000  0.000000000  0.333333333

  Length of vectors
     0.017872120  0.017872120  0.022077856

  Shift w.r.t. Gamma in fractional coordinates (k-lattice)
     0.000000000  0.000000000  0.000000000

 Subroutine IBZKPT returns following result:

 Found     96 irreducible k-points:

 Following reciprocal coordinates:
            Coordinates               Weight
  0.000000  0.000000  0.000000      1.000000
  0.047619  0.000000  0.000000      6.000000
  0.095238  0.000000  0.000000      6.000000
  0.142857  0.000000  0.000000      6.000000
  0.190476  0.000000  0.000000      6.000000
  0.238095  0.000000  0.000000      6.000000
  0.285714  0.000000  0.000000      6.000000
  0.333333  0.000000  0.000000      6.000000
  0.380952  0.000000  0.000000      6.000000
  0.428571  0.000000  0.000000      6.000000
  0.476190  0.000000  0.000000      6.000000
  0.047619  0.047619  0.000000      6.000000
  0.095238  0.047619  0.000000     12.000000
  0.142857  0.047619  0.000000     12.000000
  0.190476  0.047619  0.000000     12.000000
  0.238095  0.047619  0.000000     12.000000
  0.285714  0.047619  0.000000     12.000000
  0.333333  0.047619  0.000000     12.000000
  0.380952  0.047619  0.000000     12.000000
  0.428571  0.047619  0.000000     12.000000
  0.476190  0.047619  0.000000      6.000000
  0.095238  0.095238  0.000000      6.000000
  0.142857  0.095238  0.000000     12.000000
  0.190476  0.095238  0.000000     12.000000
  0.238095  0.095238  0.000000     12.000000
  0.285714  0.095238  0.000000     12.000000
  0.333333  0.095238  0.000000     12.000000
  0.380952  0.095238  0.000000     12.000000
  0.428571  0.095238  0.000000     12.000000
  0.142857  0.142857  0.000000      6.000000
  0.190476  0.142857  0.000000     12.000000
  0.238095  0.142857  0.000000     12.000000
  0.285714  0.142857  0.000000     12.000000
  0.333333  0.142857  0.000000     12.000000
  0.380952  0.142857  0.000000     12.000000
  0.428571  0.142857  0.000000      6.000000
  0.190476  0.190476  0.000000      6.000000
  0.238095  0.190476  0.000000     12.000000
  0.285714  0.190476  0.000000     12.000000
  0.333333  0.190476  0.000000     12.000000
  0.380952  0.190476  0.000000     12.000000
  0.238095  0.238095  0.000000      6.000000
  0.285714  0.238095  0.000000     12.000000
  0.333333  0.238095  0.000000     12.000000
  0.380952  0.238095  0.000000      6.000000
  0.285714  0.285714  0.000000      6.000000
  0.333333  0.285714  0.000000     12.000000
  0.333333  0.333333  0.000000      2.000000
  0.000000  0.000000  0.333333      2.000000
  0.047619  0.000000  0.333333     12.000000
  0.095238  0.000000  0.333333     12.000000
  0.142857  0.000000  0.333333     12.000000
  0.190476  0.000000  0.333333     12.000000
  0.238095  0.000000  0.333333     12.000000
  0.285714  0.000000  0.333333     12.000000
  0.333333  0.000000  0.333333     12.000000
  0.380952  0.000000  0.333333     12.000000
  0.428571  0.000000  0.333333     12.000000
  0.476190  0.000000  0.333333     12.000000
  0.047619  0.047619  0.333333     12.000000
[...]
  0.333333  0.142857  0.333333     24.000000
  0.380952  0.142857  0.333333     24.000000
  0.428571  0.142857  0.333333     12.000000
  0.190476  0.190476  0.333333     12.000000
  0.238095  0.190476  0.333333     24.000000
  0.285714  0.190476  0.333333     24.000000
  0.333333  0.190476  0.333333     24.000000
[...]
  257        chggra                                0.041800                            3   3
  258          fft3d_mpi                             0.036928                          9   4
  259            fftbrc_mpi                            0.034726                        9   5
  260              fftbas_plan_mpi                       0.034716                      9   6
  261                map_forward                           0.000074                   12   7
  262                  map_scatter                           0.000014                  6   8
  263                map_backward                          0.000021                    6   7
  264                  map_gather                            0.000006                  3   8
  265          pothar                                0.000873                          3   4
  266        brmix                                 0.024294                            3   3
  267          brpre                                 0.000280                          3   4
  268          setg0                                 0.008646                          3   4
  269          broyd                                 0.003963                          3   4
  270            brget                                 0.000637                      162   5
  271            brsav                                 0.000409                       42   5
  272          m_bcast_z                             0.008659                          3   4
  273          m_bcast_d                             0.000104                          3   4
  274        m_bcast_d                             0.000063                            6   3
  275      potlok                                0.301511                              3   2
  276        fft3d_mpi                             0.075648                           39   3
  277          fftbrc_mpi                            0.058167                         39   4
  278            fftbas_plan_mpi                       0.058137                       39   5
  279              dfftw_execute                         0.041231                    117   6
  280              map_forward                           0.007266                     42   6
  281                map_scatter                           0.004917                   21   7
  282              map_backward                          0.007815                     36   6
  283                map_gather                            0.005273                   18   7
  284        ggaall_grid                           0.063707                            3   3
  285        pothar                                0.010743                            3   3
  286      potlok_metagga                        0.000002                              3   2
  287      set_dd_magatom                        0.000006                              3   2
  288      set_dd_paw                            0.009768                              3   2
  289        m_sumb_d                              0.000250                           21   3
  290      wavpre_noio                           0.096212                              2   2
  291        stufak                                0.009316                            2   3
  292      densta                                0.001872                              1   2
  293        m_sumb_d                              0.000084                           11   3

 Flat profile

 i2                                      5.514666       10112
 rpromu_acc                              5.307682       19241
 i3                                      5.166991       10112
 eddav                                   5.018451           7
 phaser                                  4.652971        1752
 orth1                                   3.648967        8307
 hamiltmu                                3.407343       12425
 total_time                              3.156016           1
 fft3d                                   2.633716      232723
 lapack                                  2.245447        2313
 cnorma                                  2.139376      177459
 newband                                 2.066617       13241
 potlok                                  1.726049          33
 eddiag                                  1.607723          27
 m_sumb_d                                1.602498         920
 choleski                                1.441289         720
 setdij_                                 1.017402         112
 raccmu_                                 0.980048       12425
 racc0mu_acc                             0.932846       12425
 w1_copy                                 0.886101      170436
 eccp                                    0.883506       84449
 ggaall_grid                             0.768293          36
 overl_mu                                0.736385       12425
 w1_gemv                                 0.735297      152832
 w1_dot                                  0.718735       20088
 fftwav                                  0.706436      155823
 dfftw_execute                           0.546573        1575
 w1_dscal                                0.484159       95996
 augmentation_charge                     0.344469          30
 w1_daxpy                                0.317554       78130
 lincom                                  0.294834        1536
 init_hip                                0.288360           1
 fft3d_mpi                               0.272794       77434
 elmin                                   0.260660           3
 rspher_all                              0.248336          40
 fftwav_mpi                              0.227587      155823
 kinhamil                                0.198526       76900
 fftext_mpi                              0.189847       76900
 overl                                   0.178732       31654
 set_charge                              0.173151          30
 vhamil                                  0.164421       76900
 w1_gaxpy                                0.157719       38792
 overl1                                  0.153612       38208
 depsum                                  0.152734          30
 force_and_stress                        0.151270           3
 apply_precond                           0.143312       71419
 eccp_nl                                 0.138439      118306
 zhegv                                   0.137502       18977
 ggemm                                   0.123216        2985
 pothar                                  0.119786          36
 set_dd_paw                              0.114157          36
 setup_precond                           0.103350       25296
 wavpre_noio                             0.086896           2
 setg0                                   0.086560          33
 eddrmm                                  0.079096          27
 fftbas_plan_mpi                         0.076125         534
 map_gather                              0.069991         279
 soft_charge                             0.064401          30
 densta                                  0.064341          35
 forhar                                  0.063087           6
 map_scatter                             0.062854         255
 m_bcast_z                               0.061939          71
 rpro_isp                                0.052541         936
 strnlr                                  0.046371           3
 forloc                                  0.042905           3
 orthch                                  0.038747          30
 map_backward                            0.036836         558
 proall                                  0.032006           3
 pw_charge                               0.031824       17280
 map_forward                             0.029853         510
 brmix                                   0.026604          30
 i1                                      0.020454       10112
 hamilt_local                            0.018646       20088
 strkin                                  0.016805           3
 hip_hipfft_makeplan                     0.015962           6
 fornlr                                  0.015397           3
 broyd                                   0.015380          30
 stufak                                  0.014978           3
 strelo                                  0.014671           3
 inisym                                  0.011840           1
 truncate_high_frequency_w1              0.011327       82108
 w1_projall                              0.010328       11753
 strehar                                 0.009723           3
 chggra                                  0.003999           3
 brget                                   0.003646         947
 brsav                                   0.002906         293
 brpre                                   0.002818          30
 m_bcast_d                               0.002557          49
 fewald                                  0.001535           3
 fft_gq                                  0.001504          30
 brgrid                                  0.001149           1
 rsp                                     0.000577           3
 fftbrc_mpi                              0.000415         534
 hip_init_hipblas                        0.000247           1
 shift_bands_between_low_high            0.000216         648
 rcp                                     0.000153           3
 vectorpot                               0.000107          31
 fordep                                  0.000084           3
 set_dd_magatom                          0.000083          36
 hip_init_rocsolver                      0.000068           1
 crpa_reader                             0.000066           1
 posmap                                  0.000024           2
 potlok_metagga                          0.000023          33
 rotate_active_occupied_orbital          0.000009           3
 hip_hipfft_makeplans                    0.000003           3
 redis_pw_over_bands                     0.000002           3
  summed up times    66.6366329193115

 Accumulative profile

 total_time                             66.636633           1
 elmin                                  51.199868           3
 eddrmm                                 29.996761          27
 eddav                                  11.992109           7
 i3                                      9.259824       10112
 i2                                      7.983231       10112
 hamiltmu                                7.121595       12425
 force_and_stress                        6.892700           3
 rpromu_acc                              5.307682       19241
 orthch                                  5.006329          30
 phaser                                  4.652971        1752
 strnlr                                  4.129417           3
 orth1                                   3.648967        8307
 potlok                                  3.402802          33
 rpro_isp                                3.284207         936
 newband                                 3.057857       13241
 fftwav_mpi                              2.781196      155823
 w1_projall                              2.762189       11753
 raccmu_                                 2.649279       12425
 fft3d                                   2.633716      232723
 fftwav                                  2.553608      155823
 eddiag                                  2.403511          27
 cnorma                                  2.277815      177459
 lapack                                  2.245447        2313
 fft3d_mpi                               1.881984       77434
 set_charge                              1.838023          30
 m_sumb_d                                1.602498         920
 choleski                                1.441289         720
 fornlr                                  1.368685           3
 kinhamil                                1.218328       76900
 soft_charge                             1.100378          30
 fftext_mpi                              1.019802       76900
 setdij_                                 1.017402         112
 racc0mu_acc                             0.932846       12425
 w1_gemv                                 0.888909      152832
 w1_copy                                 0.886101      170436
 eccp                                    0.883506       84449
 fftbrc_mpi                              0.822646         534
 fftbas_plan_mpi                         0.822232         534
 ggaall_grid                             0.768293          36
 overl_mu                                0.736385       12425
 proall                                  0.725224           3
 w1_dot                                  0.718735       20088
 dfftw_execute                           0.546573        1575
 w1_dscal                                0.484159       95996
 augmentation_charge                     0.405231          30
 hamilt_local                            0.336422       20088
 w1_daxpy                                0.317554       78130
 lincom                                  0.294834        1536
 init_hip                                0.288360           1
 rspher_all                              0.248336          40
 brmix                                   0.199192          30
 overl                                   0.178732       31654
 i1                                      0.177264       10112
 vhamil                                  0.164421       76900
 fordep                                  0.162378           3
 depsum                                  0.159264          30
 w1_gaxpy                                0.157719       38792
 overl1                                  0.153612       38208
 set_dd_paw                              0.149334          36
 apply_precond                           0.143312       71419
 eccp_nl                                 0.138439      118306
 zhegv                                   0.137502       18977
 ggemm                                   0.123216        2985
 pothar                                  0.119786          36
 map_backward                            0.106827         558
 setup_precond                           0.103350       25296
 wavpre_noio                             0.096212           2
 map_forward                             0.092706         510
 setg0                                   0.086560          33
 map_gather                              0.069991         279
 densta                                  0.067718          35
 forhar                                  0.063087           6
 map_scatter                             0.062854         255
 m_bcast_z                               0.061939          71
 forloc                                  0.042905           3
 chggra                                  0.041800           3
 pw_charge                               0.031824       17280
 fft_gq                                  0.027398          30
 broyd                                   0.021933          30
 strkin                                  0.016843           3
 hip_hipfft_makeplans                    0.015965           3
 hip_hipfft_makeplan                     0.015962           6
 stufak                                  0.014978           3
 strelo                                  0.014671           3
 inisym                                  0.011864           1
 truncate_high_frequency_w1              0.011327       82108
 strehar                                 0.009723           3
 brget                                   0.003646         947
 brsav                                   0.002906         293
 brpre                                   0.002818          30
 m_bcast_d                               0.002557          49
 fewald                                  0.002514           3
 brgrid                                  0.001149           1
 rsp                                     0.000577           3
 hip_init_hipblas                        0.000247           1
 shift_bands_between_low_high            0.000216         648
 rcp                                     0.000153           3
 vectorpot                               0.000107          31
 set_dd_magatom                          0.000083          36
 hip_init_rocsolver                      0.000068           1
 crpa_reader                             0.000066           1
 posmap                                  0.000024           2
 potlok_metagga                          0.000023          33
 rotate_active_occupied_orbital          0.000009           3
 redis_pw_over_bands                     0.000002           3

Profiling took   0.396004  0.243436  0.002905  0.002812 seconds
Profiling took   0.301543 seconds