 vasp.6.3.2 27Jun22 (build Mar 15 2023 15:45:48) complex

 executed on             LinuxIFC date 2024.07.18  23:05:20

 INCAR:
   SYSTEM = ni3al
   PREC = Accurate
   EDIFF = 1E-6
   EDIFFG = -1E-2
   ISTART = 0
   ICHARG = 2
   LREAL = Auto
   NSW = 300
   ISIF = 3
   IBRION = 2
   ISMEAR = 0
   SIGMA = 0.1
   ENCUT = 530
   ALGO = Fast
   LMAXMIX = 4
   AMIN = 0.01
   NELM = 150
   LCHARG = .FALSE.
   LWAVE = .FALSE.
   KPAR = 8

 POTCAR:   PAW_PBE Al 04Jan2001
 POTCAR:   PAW_PBE O 08Apr2002
 POTCAR:   PAW_PBE Al 04Jan2001
   VRHFIN =Al: s2p1

   TITEL  = PAW_PBE Al 04Jan2001
   POMASS =   26.982; ZVAL   =    3.000    mass and valenz
   ENMAX  =  240.300; ENMIN  =  180.225 eV
   QCUT   =   -4.203; QGAM   =    8.405    optimization parameters

   Description
     l     E      TYP  RCUT    TYP  RCUT
     0   .000     23  1.900
     0   .000     23  1.900
     1   .000     23  1.900
     1  1.000     23  1.900
     2   .000      7  1.900

 POTCAR:   PAW_PBE O 08Apr2002
   VRHFIN =O: s2p4

   TITEL  = PAW_PBE O 08Apr2002
   POMASS =   16.000; ZVAL   =    6.000    mass and valenz
   ENMAX  =  400.000; ENMIN  =  300.000 eV
   QCUT   =   -5.520; QGAM   =   11.041    optimization parameters

   Description
     l     E      TYP  RCUT    TYP  RCUT
     0   .000     23  1.200
     0  -.700     23  1.200
     1   .000     23  1.520
     1   .600     23  1.520
     2   .000      7  1.500

 Optimization of the real space projectors (new method)

 maximal supplied QI-value         = 19.84
 optimisation between [QCUT,QGAM] = [ 11.71, 23.41] = [ 38.38,153.51] Ry
 Optimized for a Real-space Cutoff    1.20 Angstroem

   l    n(q)    QCUT    max X(q) W(low)/X(q) W(high)/X(q)  e(spline)
   0      8    11.707    13.410    0.18E-04    0.71E-05    0.53E-08
   0      8    11.707   140.052    0.55E-04    0.13E-03    0.46E-07
   1      8    11.707     9.624    0.67E-05    0.22E-04    0.23E-07
   1      8    11.707    53.353    0.14E-03    0.15E-04    0.69E-07
 Optimization of the real space projectors (new method)

 maximal supplied QI-value         = 24.76
 optimisation between [QCUT,QGAM] = [ 11.64, 23.52] = [ 37.91,154.88] Ry
 Optimized for a Real-space Cutoff    1.13 Angstroem

   l    n(q)    QCUT    max X(q) W(low)/X(q) W(high)/X(q)  e(spline)
   0      8    11.635     4.192    0.29E-04    0.72E-04    0.33E-07
   0      8    11.635     8.473    0.92E-04    0.28E-03    0.26E-06
   1      7    11.635     2.474    0.16E-04    0.69E-04    0.27E-07
   1      7    11.635     3.912    0.25E-03    0.20E-03    0.26E-06
 PAW_PBE Al 04Jan2001                   :
 PAW_PBE O 08Apr2002                    :

 POSCAR: Al12 O18
  positions in direct lattice
 exchange correlation table for  LEXCH =        8
   RHO(1)=    0.500       N(1)  =     2000
   RHO(2)=  100.500       N(2)  =     4000

 VTST: version 4.2, (08/11/21)

 CHAIN: initializing optimizer

 OPT: Using VASP Conjugate-Gradient optimizer
 CHAIN: Read ICHAIN            0

 POSCAR: Al12 O18
  positions in direct lattice

 ion  position               nearest neighbor table
   1  0.333  0.667  0.815-  14 1.87  17 1.87  18 1.87  19 1.99  21 1.99  22 1.99   6 2.68   8 2.82
                             8 2.82   8 2.82   2 3.25   2 3.25   2 3.25
   2  0.667  0.333  0.685-  14 1.87  18 1.87  17 1.87  16 1.99  13 1.99  15 1.99   9 2.68   3 2.82
                             3 2.82   3 2.82   1 3.25   1 3.25   1 3.25
   3  0.000  0.000  0.648-  15 1.87  13 1.87  16 1.87  14 1.99  17 1.99  18 1.99   8 2.68   2 2.82
                             2 2.82   2 2.82   4 3.25   4 3.25   4 3.25
   4  0.333  0.667  0.519-  13 1.87  16 1.87  15 1.87  26 1.99  29 1.99  30 1.99  11 2.68   9 2.82
                             9 2.82   9 2.82   3 3.25   3 3.25   3 3.25
   5  0.000  0.000  0.148-  20 1.87  23 1.87  24 1.87  25 1.99  27 1.99  28 1.99  10 2.68  12 2.82
                            12 2.82  12 2.82   6 3.25   6 3.25   6 3.25
   6  0.333  0.667  0.019-  23 1.87  24 1.87  20 1.87  22 1.99  19 1.99  21 1.99   1 2.68   7 2.82
                             7 2.82   7 2.82   5 3.25   5 3.25   5 3.25
   7  0.667  0.333  0.981-  22 1.87  19 1.87  21 1.87  20 1.99  23 1.99  24 1.99  12 2.68   6 2.82
                             6 2.82   6 2.82   8 3.25   8 3.25   8 3.25
   8  0.000  0.000  0.852-  21 1.87  22 1.87  19 1.87  14 1.99  17 1.99  18 1.99   3 2.68   1 2.82
                             1 2.82   1 2.82   7 3.25   7 3.25   7 3.25
   9  0.667  0.333  0.481-  30 1.87  29 1.87  26 1.87  13 1.99  15 1.99  16 1.99   2 2.68   4 2.82
                             4 2.82   4 2.82  10 3.25  10 3.25  10 3.25
  10  0.000  0.000  0.352-  26 1.87  30 1.87  29 1.87  28 1.99  25 1.99  27 1.99   5 2.68  11 2.82
                            11 2.82  11 2.82   9 3.25   9 3.25   9 3.25
  11  0.333  0.667  0.315-  27 1.87  25 1.87  28 1.87  26 1.99  29 1.99  30 1.99   4 2.68  10 2.82
                            10 2.82  10 2.82  12 3.25  12 3.25  12 3.25
  12  0.667  0.333  0.185-  27 1.87  28 1.87  25 1.87  20 1.99  23 1.99  24 1.99   7 2.68   5 2.82
                             5 2.82   5 2.82  11 3.25  11 3.25  11 3.25
  13  0.361  0.333  0.583-   3 1.87   4 1.87   2 1.99   9 1.99
  14  0.694  0.694  0.750-   1 1.87   2 1.87   3 1.99   8 1.99
  15  0.973  0.639  0.583-   3 1.87   4 1.87   2 1.99   9 1.99
  16  0.667  0.027  0.583-   3 1.87   4 1.87   2 1.99   9 1.99
  17  0.000  0.306  0.750-   1 1.87   2 1.87   3 1.99   8 1.99
  18  0.306  0.000  0.750-   2 1.87   1 1.87   3 1.99   8 1.99
  19  0.027  0.667  0.917-   8 1.87   7 1.87   1 1.99   6 1.99
  20  0.361  0.027  0.083-   5 1.87   6 1.87  12 1.99   7 1.99
  21  0.639  0.973  0.917-   8 1.87   7 1.87   1 1.99   6 1.99
  22  0.333  0.361  0.917-   8 1.87   7 1.87   1 1.99   6 1.99
  23  0.667  0.639  0.083-   5 1.87   6 1.87  12 1.99   7 1.99
  24  0.973  0.333  0.083-   5 1.87   6 1.87  12 1.99   7 1.99
  25  0.694  0.000  0.250-  11 1.87  12 1.87   5 1.99  10 1.99
  26  0.027  0.361  0.417-  10 1.87   9 1.87  11 1.99   4 1.99
  27  0.306  0.306  0.250-  12 1.87  11 1.87   5 1.99  10 1.99
  28  0.000  0.694  0.250-  12 1.87  11 1.87   5 1.99  10 1.99
  29  0.333  0.973  0.417-  10 1.87   9 1.87  11 1.99   4 1.99
  30  0.639  0.667  0.417-  10 1.87   9 1.87  11 1.99   4 1.99

  LATTYP: Found a hexagonal cell.
 ALAT       =     4.8050272209
 C/A-ratio  =     2.7296938487

  Lattice vectors:

 A1 = (   2.4025136104,  -4.1612756391,   0.0000000000)
 A2 = (   2.4025136104,   4.1612756391,   0.0000000000)
 A3 = (   0.0000000000,   0.0000000000,  13.1162532478)

Analysis of symmetry for initial positions (statically):
 Subroutine PRICEL returns following result:

  LATTYP: Found a trigonal (rhomboedric) cell.
 ALAT       =     5.1779549700
 COS(alpha) =     0.5694286086

[...]

   3 primitive cells build up your supercell.

 Routine SETGRP: Setting up the symmetry group for a
 hexagonal supercell.

 Subroutine GETGRP returns: Found 12 space group operations
 (whereof  6 operations were pure point group operations)
 out of a pool of 24 trial point group operations.

The static configuration has the point symmetry S_6 .
 The point group associated with its full space group is D_3d.

Analysis of symmetry for dynamics (positions and initial velocities):
 Subroutine PRICEL returns following result:

  LATTYP: Found a trigonal (rhomboedric) cell.
 ALAT       =     5.1779549700
 COS(alpha) =     0.5694286086

  Lattice vectors:

 A1 = (  -2.4025136104,  -1.3870918797,   4.3720844159)
 A2 = (   2.4025136104,  -1.3870918797,   4.3720844159)
 A3 = (  -0.0000000000,   2.7741837594,   4.3720844159)

   3 primitive cells build up your supercell.

 Routine SETGRP: Setting up the symmetry group for a
 hexagonal supercell.

 Subroutine GETGRP returns: Found 12 space group operations
 (whereof  6 operations were pure point group operations)
 out of a pool of 24 trial point group operations.

The dynamic configuration has the point symmetry S_6 .
 The point group associated with its full space group is D_3d.

 Subroutine INISYM returns: Found 12 space group operations
 (whereof  6 operations are pure point group operations),
 and found     3 'primitive' translations

                                     Primitive cell

  volume of cell :      87.4200

  direct lattice vectors                    reciprocal lattice vectors
    -2.402513610 -1.387091880  4.372084416    -0.208115366 -0.120155463  0.076241285
     2.402513610 -1.387091880  4.372084416     0.208115366 -0.120155463  0.076241285
    -0.000000000  2.774183759  4.372084416     0.000000000  0.240310925  0.076241285

  length of vectors
     5.177954970  5.177954970  5.177954970     0.252115201  0.252115201  0.252115201

  position of ions in fractional coordinates (direct lattice)
     0.147904000  0.147904000  0.147904000
     0.352096000  0.352096000  0.352096000
     0.647904000  0.647904000  0.647904000
     0.852096000  0.852096000  0.852096000
     0.250000000  0.943854500  0.556145500
     0.056145500  0.443854500  0.750000000
     0.943854500  0.556145500  0.250000000
     0.556145500  0.250000000  0.943854500
     0.443854500  0.750000000  0.056145500
     0.750000000  0.056145500  0.443854500

  ion indices of the primitive-cell ions
   primitive index   ion index
                 1           1
                 2           6
                 3           7
                 4           4
                 5          19
                 6          14
                 7          15
                 8          22
                 9          23
                10          18

 KPOINTS: K-Spacing Value to Generate K-Mesh: 0.02

Automatic generation of k-mesh.
 Grid dimensions read from file:
 generate k-points for:   15   15    4

 Generating k-lattice:

  Cartesian coordinates                     Fractional coordinates (reciprocal lattice)
     0.013874358 -0.008010364  0.000000000     0.066666667  0.000000000  0.000000000
     0.013874358  0.008010364  0.000000000     0.000000000  0.066666667  0.000000000
     0.000000000  0.000000000  0.019060321     0.000000000  0.000000000  0.250000000

  Length of vectors
     0.016020728  0.016020728  0.019060321

  Shift w.r.t. Gamma in fractional coordinates (k-lattice)
     0.000000000  0.000000000  0.000000000

 Subroutine IBZKPT returns following result:

 Found    100 irreducible k-points:

 Following reciprocal coordinates:
            Coordinates               Weight
  0.000000  0.000000  0.000000      1.000000
  0.066667  0.000000  0.000000      6.000000
  0.133333  0.000000  0.000000      6.000000
  0.200000  0.000000  0.000000      6.000000
  0.266667  0.000000  0.000000      6.000000
  0.333333  0.000000  0.000000      6.000000
  0.400000 -0.000000  0.000000      6.000000
  0.466667  0.000000  0.000000      6.000000
  0.066667  0.066667  0.000000      6.000000
  0.133333  0.066667  0.000000     12.000000
  0.200000  0.066667  0.000000     12.000000
  0.266667  0.066667  0.000000     12.000000
  0.333333  0.066667  0.000000     12.000000
  0.400000  0.066667  0.000000     12.000000
  0.466667  0.066667  0.000000      6.000000
  0.133333  0.133333  0.000000      6.000000
  0.200000  0.133333  0.000000     12.000000
[...]
  257        chggra                                0.086003                            3   3
  258          fft3d_mpi                             0.078416                          9   4
  259            fftbrc_mpi                            0.075590                        9   5
  260              fftbas_plan_mpi                       0.075581                      9   6
  261                map_forward                           0.000109                   12   7
  262                  map_scatter                           0.000028                  6   8
  263                map_backward                          0.000035                    6   7
  264                  map_gather                            0.000010                  3   8
  265          pothar                                0.001129                          3   4
  266        brmix                                 0.060112                            3   3
  267          brpre                                 0.000731                          3   4
  268          setg0                                 0.016844                          3   4
  269          broyd                                 0.008452                          3   4
  270            brget                                 0.001514                      142   5
  271            brsav                                 0.000940                       38   5
  272          m_bcast_z                             0.027710                          3   4
  273          m_bcast_d                             0.000300                          3   4
  274        m_bcast_d                             0.000069                            6   3
  275      potlok                                0.589364                              3   2
  276        fft3d_mpi                             0.160676                           39   3
  277          fftbrc_mpi                            0.127052                         39   4
  278            fftbas_plan_mpi                       0.127022                       39   5
  279              dfftw_execute                         0.087956                    117   6
  280              map_forward                           0.016507                     42   6
  281                map_scatter                           0.012191                   21   7
  282              map_backward                          0.019701                     36   6
  283                map_gather                            0.012241                   18   7
  284        ggaall_grid                           0.117361                            3   3
  285        pothar                                0.019772                            3   3
  286      potlok_metagga                        0.000003                              3   2
  287      set_dd_magatom                        0.000015                              3   2
  288      set_dd_paw                            0.021918                              3   2
  289        m_sumb_d                              0.000267                           21   3
  290      wavpre_noio                           0.188418                              2   2
  291        stufak                                0.037107                            2   3
  292      densta                                0.003795                              1   2
  293        m_sumb_d                              0.000125                            8   3

 Flat profile

 eddav                                  26.052352           7
 rpromu_acc                             22.530781       49839
 i2                                     18.568670       23971
 hamiltmu                               15.661888       30314
 i3                                     14.766432       23971
 fft3d                                  13.710651      612276
 phaser                                 10.465688        1725
 m_sumb_d                               10.154122         766
 eddiag                                  8.474261          23
 newband                                 8.065572       31064
 total_time                              7.119552           1
 cnorma                                  6.582772      438366
 lapack                                  5.922320        6343
 racc0mu_acc                             4.308291       30314
 orth1                                   4.094398       20829
 eccp                                    3.907484      212122
 raccmu_                                 3.395569       30314
 w1_copy                                 3.129101      438798
 choleski                                3.033917         650
 potlok                                  2.824744          29
 fftwav                                  2.786057      415410
 w1_gemv                                 2.544560      360816
 setdij_                                 2.259742         108
 w1_dot                                  2.227723       50600
 overl_mu                                2.167829       30314
 w1_dscal                                2.017392      230288
 w1_daxpy                                1.363089      191044
 ggaall_grid                             1.255531          32
 dfftw_execute                           1.015982        1395
 kinhamil                                0.718014      196866
 fftext_mpi                              0.689831      196866
 fftwav_mpi                              0.654898      415410
 augmentation_charge                     0.648752          26
 lincom                                  0.638651        1400
 w1_gaxpy                                0.633536       91200
 vhamil                                  0.628936      196866
 elmin                                   0.615766           3
 overl1                                  0.613288       90204
 rspher_all                              0.577648          40
 eccp_nl                                 0.559286      292244
 set_charge                              0.546607          26
 apply_precond                           0.526103      177144
 fft3d_mpi                               0.498004      197340
 overl                                   0.478837       87313
 depsum                                  0.449847          26
 init_hip                                0.404834           1
 setup_precond                           0.402626       66000
 force_and_stress                        0.344095           3
 ggemm                                   0.341691        8268
 zhegv                                   0.303689       44922
 strnlr                                  0.253626           3
 eddrmm                                  0.250192          23
 m_bcast_z                               0.243206          63
 set_dd_paw                              0.231369          32
 pothar                                  0.193012          32
 rpro_isp                                0.190670         975
 fftbas_plan_mpi                         0.186811         474
 orthch                                  0.173404          26
 map_gather                              0.155289         247
 wavpre_noio                             0.151311           2
 setg0                                   0.140817          29
 proall                                  0.140007           3
 map_scatter                             0.132241         227
 densta                                  0.120463          31
 forhar                                  0.115532           6
 map_backward                            0.093355         494
 pw_charge                               0.091165       46800
 fornlr                                  0.081827           3
 forloc                                  0.078042           3
 strkin                                  0.077368           3
 soft_charge                             0.070622          26
 w1_projall                              0.065802       28389
 stufak                                  0.056739           3
 i1                                      0.052302       23971
 brmix                                   0.050652          26
 map_forward                             0.049729         454
 hamilt_local                            0.048105       50600
 inisym                                  0.034184           1
 broyd                                   0.029634          26
 truncate_high_frequency_w1              0.029331      212266
 strelo                                  0.017812           3
 hip_hipfft_makeplan                     0.017803           6
 strehar                                 0.009026           3
 brget                                   0.008180         796
 chggra                                  0.006458           3
 brsav                                   0.006168         249
 brpre                                   0.006147          26
 m_bcast_d                               0.003861          45
 rsp                                     0.003214           3
 brgrid                                  0.002074           1
 fft_gq                                  0.002038          26
 fewald                                  0.001549           3
 fftbrc_mpi                              0.000437         474
 shift_bands_between_low_high            0.000415         575
 rcp                                     0.000325           3
 vectorpot                               0.000310          27
 posmap                                  0.000194           2
 hip_init_hipblas                        0.000191           1
 set_dd_magatom                          0.000137          32
 fordep                                  0.000111           3
 hip_init_rocsolver                      0.000069           1
 crpa_reader                             0.000067           1
 potlok_metagga                          0.000029          29
 rotate_active_occupied_orbital          0.000013           3
 hip_hipfft_makeplans                    0.000006           3
 redis_pw_over_bands                     0.000001           3
  summed up times    225.354846000671

 Accumulative profile

 total_time                            225.354846           1
 elmin                                 185.742930           3
 eddrmm                                106.644180          23
 eddav                                  50.123678           7
 hamiltmu                               30.213458       30314
 i3                                     28.998602       23971
 i2                                     28.498905       23971
 force_and_stress                       25.007444           3
 rpromu_acc                             22.530781       49839
 rpro_isp                               16.459700         975
 strnlr                                 16.101822           3
 fft3d                                  13.710651      612276
 fftwav_mpi                             12.981908      415410
 fftwav                                 12.327010      415410
 eddiag                                 12.245059          23
 newband                                12.217995       31064
 phaser                                 10.465688        1725
 m_sumb_d                               10.154122         766
 w1_projall                              9.980981       28389
 raccmu_                                 9.871688       30314
 set_charge                              7.695878          26
 cnorma                                  7.142058      438366
 orthch                                  6.657902          26
 fft3d_mpi                               6.301546      197340
 lapack                                  5.922320        6343
 soft_charge                             5.885037          26
 potlok                                  5.726123          29
 kinhamil                                5.686649      196866
 fornlr                                  5.312920           3
 fftext_mpi                              4.968635      196866
 racc0mu_acc                             4.308291       30314
 orth1                                   4.094398       20829
 eccp                                    3.907484      212122
 w1_gemv                                 3.157848      360816
 w1_copy                                 3.129101      438798
 choleski                                3.033917         650
 setdij_                                 2.259742         108
 w1_dot                                  2.227723       50600
 overl_mu                                2.167829       30314
 proall                                  2.138561           3
 w1_dscal                                2.017392      230288
 hamilt_local                            1.683808       50600
 fftbrc_mpi                              1.633844         474
 fftbas_plan_mpi                         1.633406         474
 w1_daxpy                                1.363089      191044
 ggaall_grid                             1.255531          32
 dfftw_execute                           1.015982        1395
 augmentation_charge                     0.762107          26
 i1                                      0.716129       23971
 lincom                                  0.638651        1400
 w1_gaxpy                                0.633536       91200
 vhamil                                  0.628936      196866
 overl1                                  0.613288       90204
 rspher_all                              0.577648          40
 eccp_nl                                 0.559286      292244
 apply_precond                           0.526103      177144
 depsum                                  0.502126          26
 brmix                                   0.484411          26
 overl                                   0.478837       87313
 init_hip                                0.404834           1
 setup_precond                           0.402626       66000
 fordep                                  0.376247           3
 ggemm                                   0.341691        8268
 set_dd_paw                              0.318429          32
 zhegv                                   0.303689       44922
 map_backward                            0.248644         494
 m_bcast_z                               0.243206          63
 pothar                                  0.193012          32
 wavpre_noio                             0.188418           2
 map_forward                             0.181970         454
 map_gather                              0.155289         247
 setg0                                   0.140817          29
 map_scatter                             0.132241         227
 densta                                  0.124913          31
 forhar                                  0.115532           6
 fft_gq                                  0.100279          26
 pw_charge                               0.091165       46800
 chggra                                  0.086003           3
 forloc                                  0.078042           3
 strkin                                  0.077580           3
 stufak                                  0.056739           3
 broyd                                   0.043982          26
 inisym                                  0.034378           1
 truncate_high_frequency_w1              0.029331      212266
 strelo                                  0.017812           3
 hip_hipfft_makeplans                    0.017809           3
 hip_hipfft_makeplan                     0.017803           6
 strehar                                 0.009026           3
 brget                                   0.008180         796
 brsav                                   0.006168         249
 brpre                                   0.006147          26
 fewald                                  0.005292           3
 m_bcast_d                               0.003861          45
 rsp                                     0.003214           3
 brgrid                                  0.002074           1
 shift_bands_between_low_high            0.000415         575
 rcp                                     0.000325           3
 vectorpot                               0.000310          27
 posmap                                  0.000194           2
 hip_init_hipblas                        0.000191           1
 set_dd_magatom                          0.000137          32
 hip_init_rocsolver                      0.000069           1
 crpa_reader                             0.000067           1
 potlok_metagga                          0.000029          29
 rotate_active_occupied_orbital          0.000013           3
 redis_pw_over_bands                     0.000001           3

Profiling took   1.073245  0.646265  0.002850  0.002728 seconds
Profiling took   0.780099 seconds