 vasp.6.3.2 27Jun22 (build Mar 15 2023 15:45:48) complex

 executed on             LinuxIFC date 2024.07.23  08:38:54

 INCAR:
   SYSTEM = ni3al
   PREC = Accurate
   EDIFF = 1E-6
   EDIFFG = -1E-2
   ISTART = 0
   ICHARG = 2
   LREAL = Auto
   NSW = 0
   ISIF = 2
   IBRION = 1
   ISMEAR = 0
   SIGMA = 0.1
   ENCUT = 530
   ALGO = Fast
   LMAXMIX = 4
   AMIN = 0.01
   NELM = 150
   LCHARG = .FALSE.
   LWAVE = .TRUE.
   KPAR = 8

 POTCAR:   PAW_PBE C 08Apr2002
 POTCAR:   PAW_PBE F 08Apr2002
 POTCAR:   PAW_PBE Si 05Jan2001
 POTCAR:   PAW_PBE K_sv 06Sep2000
 POTCAR:   PAW_PBE C 08Apr2002
   VRHFIN =C: s2p2

   TITEL  = PAW_PBE C 08Apr2002
   POMASS =   12.011; ZVAL   =    4.000    mass and valenz
   ENMAX  =  400.000; ENMIN  =  300.000 eV
   QCUT   =   -5.516; QGAM   =   11.032    optimization parameters

   Description
     l     E      TYP  RCUT    TYP  RCUT
     0   .000     23  1.200
     0   .000     23  1.200
     1   .000     23  1.500
     1  2.500     23  1.500
     2   .000      7  1.500

 POTCAR:   PAW_PBE F 08Apr2002
   VRHFIN =F: s2p5

   TITEL  = PAW_PBE F 08Apr2002
   POMASS =   18.998; ZVAL   =    7.000    mass and valenz
   ENMAX  =  400.000; ENMIN  =  300.000 eV
   QCUT   =   -5.545; QGAM   =   11.091    optimization parameters

[...]

 POTCAR:   PAW_PBE Si 05Jan2001
   VRHFIN =Si: s2p2

   TITEL  = PAW_PBE Si 05Jan2001
   POMASS =   28.085; ZVAL   =    4.000    mass and valenz
   ENMAX  =  245.345; ENMIN  =  184.009 eV
   QCUT   =   -4.246; QGAM   =    8.493    optimization parameters

[...]

 POTCAR:   PAW_PBE K_sv 06Sep2000
   VRHFIN =K:  3s3p4s

   TITEL  = PAW_PBE K_sv 06Sep2000
   POMASS =   39.098; ZVAL   =    9.000    mass and valenz
   ENMAX  =  259.216; ENMIN  =  194.412 eV
   QCUT   =   -4.365; QGAM   =    8.730    optimization parameters

   Description
     l     E      TYP  RCUT    TYP  RCUT
     0   .000     23  2.300
     0   .000     23  2.300
     1   .000     23  2.300
     1 -1.500     23  2.300
     2   .000     23  2.300

 Optimization of the real space projectors (new method)

 maximal supplied QI-value         = 25.13
 optimisation between [QCUT,QGAM] = [ 11.56, 23.37] = [ 37.43,152.99] Ry
 Optimized for a Real-space Cutoff    1.07 Angstroem

   l    n(q)    QCUT    max X(q) W(low)/X(q) W(high)/X(q)  e(spline)
   0      7    11.561     5.582    0.43E-04    0.82E-04    0.19E-07
   0      7    11.561    69.432    0.18E-03    0.47E-03    0.23E-06
   1      7    11.561     2.780    0.18E-04    0.55E-04    0.48E-07
   1      7    11.561     4.549    0.18E-03    0.21E-03    0.13E-06
 Optimization of the real space projectors (new method)

[...]

   l    n(q)    QCUT    max X(q) W(low)/X(q) W(high)/X(q)  e(spline)
   0      8    11.707     8.708    0.17E-04    0.67E-05    0.45E-08
   0      8    11.707   106.241    0.59E-04    0.18E-03    0.53E-07
   1      8    11.707     5.901    0.60E-05    0.19E-04    0.21E-07
   1      8    11.707    73.241    0.22E-03    0.21E-04    0.75E-07
 Optimization of the real space projectors (new method)

 maximal supplied QI-value         = 16.25
 optimisation between [QCUT,QGAM] = [ 11.70, 23.56] = [ 38.34,155.50] Ry
 Optimized for a Real-space Cutoff    1.35 Angstroem

   l    n(q)    QCUT    max X(q) W(low)/X(q) W(high)/X(q)  e(spline)
   0     10    11.701     6.336    0.13E-04    0.76E-05    0.61E-08
   0     10    11.701    13.439    0.24E-04    0.57E-04    0.47E-07
   1      9    11.701     3.724    0.22E-04    0.12E-04    0.26E-07
   1      9    11.701    38.716    0.12E-03    0.50E-03    0.44E-06
   2      9    11.701     3.434    0.48E-04    0.68E-04    0.36E-07
 PAW_PBE C 08Apr2002                    :
 PAW_PBE F 08Apr2002                    :
 PAW_PBE Si 05Jan2001                   :
 PAW_PBE K_sv 06Sep2000                 :

 POSCAR: POSCAR
  positions in direct lattice
  velocities in cartesian coordinates
 exchange correlation table for  LEXCH =        8
   RHO(1)=    0.500       N(1)  =     2000
   RHO(2)=  100.500       N(2)  =     4000

 VTST: version 4.2, (08/11/21)

 CHAIN: initializing optimizer

 OPT: Using VASP QUASI-newton optimizer
 CHAIN: Read ICHAIN            0

 POSCAR: POSCAR
  positions in direct lattice
  velocities in cartesian coordinates

 ion  position               nearest neighbor table
   1  0.000  0.000  0.312-  57 1.89  73 1.89  80 1.89  52 1.90
   2  0.167  0.250  0.312-  64 1.89  56 1.89  57 1.89  53 1.90
   3  1.000  0.333  0.439-  69 1.83  53 1.83  76 1.83
   4  0.167  0.083  0.438-  52 1.83  60 1.83  53 1.83
   5  0.000  0.167  0.035-  50 1.90  51 1.90  67 1.90  54 1.90
   6  0.167  0.417  0.035-  51 1.90  82 1.90  74 1.90  55 1.90
   7  0.000  0.333  0.174-  55 1.89  71 1.89  54 1.89  56 1.90
   8  0.167  0.083  0.174-  62 1.89  54 1.89  79 1.89  57 1.90
   9  0.333  0.000  0.312-  57 1.89  65 1.89  88 1.89  60 1.90
  10  0.500  0.250  0.312-  72 1.89  65 1.89  64 1.89  61 1.90
  11  0.334  0.334  0.441-  84 1.84  61 1.84  53 1.84
  12  0.500  0.083  0.438-  68 1.83  61 1.83  60 1.83
  13  0.333  0.167  0.035-  58 1.90  51 1.90  59 1.90  62 1.90
  14  0.500  0.417  0.035-  59 1.90  82 1.90  90 1.90  63 1.90
  15  0.333  0.333  0.174-  55 1.89  63 1.89  62 1.89  64 1.90
  16  0.500  0.083  0.174-  62 1.89  70 1.89  87 1.89  65 1.90
  17  0.667  0.000  0.312-  73 1.89  65 1.89  96 1.89  68 1.90
  18  0.833  0.250  0.312-  72 1.89  56 1.89  73 1.89  69 1.90
  19  0.666  0.334  0.439-  92 1.83  61 1.83  69 1.84
  20  0.833  0.083  0.439-  68 1.83  52 1.83  69 1.83
  21  0.667  0.167  0.035-  66 1.90  67 1.90  59 1.90  70 1.90
  22  0.833  0.417  0.035-  67 1.90  90 1.90  74 1.90  71 1.90
  23  0.667  0.333  0.174-  71 1.89  63 1.89  70 1.89  72 1.90
  24  0.833  0.083  0.174-  70 1.89  54 1.89  95 1.89  73 1.90
  25  0.000  0.500  0.312-  81 1.89  97 1.89  56 1.89  76 1.90
  26  0.167  0.750  0.312-  88 1.89  80 1.89  81 1.89  77 1.90
  27  1.000  0.833  0.439-  52 1.83  93 1.83  77 1.83
  28  0.167  0.583  0.444-  84 1.85  77 1.85  76 1.86  98 2.79
  29  0.000  0.667  0.035-  74 1.90  75 1.90  91 1.90  78 1.90
  30  0.167  0.917  0.035-  75 1.90  58 1.90  50 1.90  79 1.90
  31  0.000  0.833  0.174-  79 1.89  95 1.89  78 1.89  80 1.90
  32  0.167  0.583  0.174-  86 1.89  78 1.89  55 1.89  81 1.90
  33  0.333  0.500  0.312-  64 1.89  81 1.89  89 1.89  84 1.90
  34  0.500  0.750  0.312-  88 1.89  96 1.89  89 1.89  85 1.90
  35  0.334  0.833  0.440-  85 1.83  77 1.84  60 1.84
  36  0.500  0.583  0.449-  49 1.49  92 1.88  85 1.88  84 1.88
  37  0.333  0.667  0.035-  82 1.90  75 1.90  83 1.90  86 1.90
  38  0.500  0.917  0.035-  83 1.90  66 1.90  58 1.90  87 1.90
  39  0.333  0.833  0.174-  79 1.89  87 1.89  86 1.89  88 1.90
  40  0.500  0.583  0.174-  86 1.89  94 1.89  63 1.89  89 1.90
  41  0.667  0.500  0.312-  97 1.89  89 1.89  72 1.89  92 1.90
  42  0.833  0.750  0.312-  96 1.89  80 1.89  97 1.89  93 1.90
  43  0.666  0.833  0.439-  85 1.83  93 1.83  68 1.84
  44  0.833  0.583  0.439-  92 1.83  93 1.83  76 1.84
  45  0.667  0.667  0.035-  90 1.90  91 1.90  83 1.90  94 1.90
  46  0.833  0.917  0.035-  91 1.90  66 1.90  50 1.90  95 1.90
  47  0.667  0.833  0.174-  95 1.89  87 1.89  94 1.89  96 1.90
  48  0.833  0.583  0.174-  94 1.89  78 1.89  71 1.89  97 1.90
  49  0.498  0.584  0.531-  36 1.49  98 2.64
  50  0.000  0.000  0.000-   5 1.90  30 1.90  46 1.90  58 3.09  66 3.09  51 3.09  67 3.09  75 3.09
                            91 3.09  54 3.10  79 3.10  95 3.10
  51  0.167  0.250  0.000-   6 1.90  13 1.90   5 1.90  58 3.09  82 3.09  59 3.09  74 3.09  50 3.09
                            67 3.09  55 3.10  62 3.10  54 3.10
  52  0.000  0.000  0.417-  27 1.83   4 1.83  20 1.83   1 1.90  60 3.09  68 3.09  53 3.09  69 3.09
                            77 3.09  93 3.09  57 3.10  73 3.10  80 3.10
  53  0.167  0.250  0.417-   4 1.83   3 1.83  11 1.84   2 1.90  60 3.09  84 3.09  61 3.09  76 3.09
                            52 3.09  69 3.09  64 3.10  56 3.10  57 3.10
  54  0.000  0.167  0.139-   8 1.89  24 1.89   7 1.89   5 1.90  62 3.09  70 3.09  55 3.09  71 3.09
                            79 3.09  95 3.09  57 3.10  73 3.10  56 3.10  50 3.10  67 3.10  51 3.10
  55  0.167  0.417  0.139-  15 1.89   7 1.89  32 1.89   6 1.90  62 3.09  86 3.09  63 3.09  78 3.09
                            54 3.09  71 3.09  64 3.10  56 3.10  81 3.10  51 3.10  82 3.10  74 3.10
  56  0.000  0.333  0.278-   2 1.89  18 1.89  25 1.89   7 1.90  72 3.09  64 3.09  57 3.09  73 3.09
                            81 3.09  97 3.09  55 3.10  71 3.10  54 3.10  69 3.10  53 3.10  76 3.10
  57  0.167  0.083  0.278-   9 1.89   1 1.89   2 1.89   8 1.90  88 3.09  65 3.09  80 3.09  56 3.09
                            64 3.09  73 3.09  62 3.10  54 3.10  79 3.10  60 3.10  52 3.10  53 3.10
  58  0.333  0.000  0.000-  13 1.90  30 1.90  38 1.90  51 3.09  75 3.09  50 3.09  59 3.09  83 3.09
                            66 3.09  62 3.10  79 3.10  87 3.10
  59  0.500  0.250  0.000-  14 1.90  13 1.90  21 1.90  51 3.09  67 3.09  66 3.09  58 3.09  82 3.09
                            90 3.09  63 3.10  62 3.10  70 3.10
  60  0.333  0.000  0.417-   4 1.83  12 1.83  35 1.84   9 1.90  53 3.09  77 3.09  52 3.09  61 3.09
                            85 3.09  68 3.09  57 3.10  65 3.10  88 3.10
  61  0.500  0.250  0.417-  12 1.83  19 1.83  11 1.84  10 1.90  53 3.09  69 3.09  68 3.09  60 3.09
                            84 3.09  92 3.09  72 3.10  65 3.10  64 3.10
  62  0.333  0.167  0.139-   8 1.89  16 1.89  15 1.89  13 1.90  55 3.09  79 3.09  54 3.09  63 3.09
                            87 3.09  70 3.09  57 3.10  65 3.10  64 3.10  58 3.10  51 3.10  59 3.10
  63  0.500  0.417  0.139-  15 1.89  23 1.89  40 1.89  14 1.90  55 3.09  71 3.09  70 3.09  62 3.09
                            86 3.09  94 3.09  64 3.10  72 3.10  89 3.10  59 3.10  90 3.10  82 3.10
  64  0.333  0.333  0.278-  33 1.89   2 1.89  10 1.89  15 1.90  81 3.09  89 3.09  56 3.09  57 3.09
                            72 3.09  65 3.09  55 3.10  63 3.10  62 3.10  84 3.10  53 3.10  61 3.10
  65  0.500  0.083  0.278-   9 1.89  17 1.89  10 1.89  16 1.90  57 3.09  73 3.09  72 3.09  88 3.09
                            96 3.09  64 3.09  62 3.10  70 3.10  87 3.10  60 3.10  68 3.10  61 3.10
  66  0.667  0.000  0.000-  21 1.90  46 1.90  38 1.90  67 3.09  91 3.09  50 3.09  83 3.09  59 3.09
                            58 3.09  70 3.10  95 3.10  87 3.10
  67  0.833  0.250  0.000-  22 1.90  21 1.90   5 1.90  66 3.09  90 3.09  59 3.09  74 3.09  50 3.09
                            51 3.09  71 3.10  70 3.10  54 3.10
  68  0.667  0.000  0.417-  12 1.83  20 1.83  43 1.84  17 1.90  69 3.09  93 3.09  52 3.09  85 3.09
                            61 3.09  60 3.09  73 3.10  65 3.10  96 3.10
  69  0.833  0.250  0.417-   3 1.83  20 1.83  19 1.84  18 1.90  68 3.09  92 3.09  61 3.09  76 3.09
                            52 3.09  53 3.09  72 3.10  56 3.10  73 3.10
  70  0.667  0.167  0.139-  24 1.89  16 1.89  23 1.89  21 1.90  71 3.09  95 3.09  54 3.09  87 3.09
                            63 3.09  62 3.09  73 3.10  65 3.10  72 3.10  66 3.10  67 3.10  59 3.10
  71  0.833  0.417  0.139-  23 1.89   7 1.89  48 1.89  22 1.90  70 3.09  94 3.09  63 3.09  78 3.09
[...]
  254        ggaall_grid                           0.231111                            1   3
  255        forhar                                0.474425                            2   3
  256        strehar                               0.011736                            1   3
  257        chggra                                0.043456                            1   3
  258          fft3d_mpi                             0.034046                          3   4
  259            fftbrc_mpi                            0.031106                        3   5
  260              fftbas_plan_mpi                       0.031105                      3   6
  261                map_forward                           0.000054                    4   7
  262                  map_scatter                           0.000007                  2   8
  263                map_backward                          0.000014                    2   7
  264                  map_gather                            0.000004                  1   8
  265          pothar                                0.001166                          1   4
  266        brmix                                 0.300346                            1   3
  267          brpre                                 0.001292                          1   4
  268          setg0                                 0.048951                          1   4
  269          broyd                                 0.211975                          1   4
  270            brget                                 0.015037                      199   5
  271            brsav                                 0.011710                       43   5
  272          m_bcast_z                             0.021859                          1   4
  273          m_bcast_d                             0.000461                          1   4
  274        m_bcast_d                             0.000036                            2   3
  275      potlok                                1.521150                              1   2
  276        fft3d_mpi                             0.445056                           13   3
  277          fftbrc_mpi                            0.361474                         13   4
  278            fftbas_plan_mpi                       0.361454                       13   5
  279              dfftw_execute                         0.231802                     39   6
  280              map_forward                           0.064633                     14   6
  281                map_scatter                           0.037668                    7   7
  282              map_backward                          0.063573                     12   6
  283                map_gather                            0.041946                    6   7
  284        ggaall_grid                           0.231412                            1   3
  285        pothar                                0.038737                            1   3
  286      potlok_metagga                        0.000001                              1   2
  287      set_dd_magatom                        0.000005                              1   2
  288      set_dd_paw                            0.025421                              1   2
  289        m_sumb_d                              0.000167                            7   3
  290      densta                                0.001927                              1   2
  291        m_sumb_d                              0.000140                           40   3

 Flat profile

 i2                                     54.903451       13117
 hamiltmu                               42.815062       14252
 potlok                                 31.872897          40
 eddiag                                 28.422105          38
 eddav                                  27.718140           5
 m_sumb_d                               19.181370        2331
 newband                                18.261019       14338
 total_time                             14.470721           1
 rpromu_acc                             14.287787       15570
 i3                                     14.102446       13117
 dfftw_execute                          10.419717        1830
 ggaall_grid                             9.544295          41
 fft3d                                   8.074931      207561
 racc0mu_acc                             4.280112       14252
 setdij_                                 3.876097          67
 fft3d_mpi                               3.870646       80441
 raccmu_                                 3.645686       14252
 augmentation_charge                     3.508484          39
 orth1                                   3.306704        3787
 cnorma                                  3.220254      210915
 w1_gemv                                 2.785884      360584
 broyd                                   2.617343          39
 choleski                                2.370540          78
 map_gather                              2.045231         325
 eccp                                    1.992748       91805
 setg0                                   1.847004          40
 phaser                                  1.589458         112
 w1_copy                                 1.575251      182483
 map_scatter                             1.562105         288
 pothar                                  1.551114          41
 w1_dscal                                1.509261      150693
 m_bcast_z                               1.255803          85
 w1_gaxpy                                1.190564      132030
 lapack                                  1.140005        1135
 map_forward                             1.107643         576
 overl_mu                                1.074246       14252
 map_backward                            1.048292         650
 set_dd_paw                              1.034362          41
 fftwav                                  0.989726      127733
 w1_dot                                  0.900729       18647
 w1_daxpy                                0.822251      103318
 lincom                                  0.746664         164
 overl1                                  0.696903       90146
 brmix                                   0.607114          39
 apply_precond                           0.547916      156995
 elmin                                   0.546252           1
 rspher_all                              0.527184          14
 force_and_stress                        0.521024           1
 init_hip                                0.504435           1
 forhar                                  0.474425           2
 stufak                                  0.350387           1
 orthch                                  0.348390          39
 kinhamil                                0.338145       79828
 vhamil                                  0.334867       79828
 eccp_nl                                 0.319055      140610
 zhegv                                   0.317603       33012
 fftext_mpi                              0.317583       79828
 forloc                                  0.315115           1
 brget                                   0.304622        4050
 set_charge                              0.296134          39
 eddrmm                                  0.271048          38
 brsav                                   0.225679         943
 depsum                                  0.206686          39
 fftwav_mpi                              0.189507      127733
 setup_precond                           0.154146       21500
 fftbas_plan_mpi                         0.149143         613
 soft_charge                             0.137464          39
 overl                                   0.104947       15286
 densta                                  0.079533          44
 proall                                  0.068926           1
 ggemm                                   0.061376        1455
 brpre                                   0.050349          39
 pw_charge                               0.048540       16443
 strnlr                                  0.037946           1
 i1                                      0.027099       13117
 rpro_isp                                0.023190          26
 strkin                                  0.021931           1
 strelo                                  0.021299           1
 hip_hipfft_makeplan                     0.020970           6
 m_bcast_d                               0.018001          45
 hamilt_local                            0.017467       19000
 fft_gq                                  0.016854          39
 w1_projall                              0.012705       13932
 fornlr                                  0.012661           1
 inisym                                  0.012139           1
 brgrid                                  0.012110           1
 truncate_high_frequency_w1              0.011869       82328
 strehar                                 0.011736           1
 chggra                                  0.008244           1
 rsp                                     0.007154           1
 fewald                                  0.001530           1
 fftbrc_mpi                              0.000831         613
 rcp                                     0.000533           1
 hip_init_hipblas                        0.000316           1
 vectorpot                               0.000186          40
 set_dd_magatom                          0.000167          41
 hip_init_rocsolver                      0.000070           1
 crpa_reader                             0.000065           1
 shift_bands_between_low_high            0.000058          76
 fordep                                  0.000050           1
 potlok_metagga                          0.000029          40
 posmap                                  0.000020           2
 hip_hipfft_makeplans                    0.000006           3
 rotate_active_occupied_orbital          0.000006           1
 redis_pw_over_bands                     0.000000           1
  summed up times    362.249883890152

 Accumulative profile

 total_time                            362.249884           1
 elmin                                 329.885212           1
 eddrmm                                166.820216          38
 i2                                     64.738134       13117
 potlok                                 60.653423          40
 hamiltmu                               54.931065       14252
 eddav                                  40.398025           5
 eddiag                                 30.846315          38
 fft3d_mpi                              23.212393       80441
 i3                                     21.356451       13117
 newband                                20.121848       14338
 set_charge                             19.539540          39
 m_sumb_d                               19.181370        2331
 fftbrc_mpi                             16.332963         613
 fftbas_plan_mpi                        16.332132         613
 rpromu_acc                             14.287787       15570
 soft_charge                            14.015217          39
 force_and_stress                       10.633014           1
 dfftw_execute                          10.419717        1830
 ggaall_grid                             9.544295          41
 raccmu_                                 9.000045       14252
 w1_projall                              8.904791       13932
 fft3d                                   8.074931      207561
 brmix                                   6.923486          39
 fftwav_mpi                              6.245378      127733
 rpro_isp                                6.101350          26
 fftwav                                  6.055872      127733
 orthch                                  5.985942          39
 augmentation_charge                     4.968874          39
 strnlr                                  4.684813           1
 racc0mu_acc                             4.280112       14252
 setdij_                                 3.876097          67
 kinhamil                                3.708067       79828
 cnorma                                  3.539308      210915
 w1_gemv                                 3.482788      360584
 fftext_mpi                              3.369922       79828
 orth1                                   3.306704        3787
 broyd                                   3.147644          39
 map_backward                            3.093523         650
 map_forward                             2.669749         576
 choleski                                2.370540          78
 map_gather                              2.045231         325
 eccp                                    1.992748       91805
 setg0                                   1.847004          40
 set_dd_paw                              1.845659          41
 phaser                                  1.589458         112
 w1_copy                                 1.575251      182483
 map_scatter                             1.562105         288
 pothar                                  1.551114          41
 fornlr                                  1.550186           1
 w1_dscal                                1.509261      150693
 m_bcast_z                               1.255803          85
 w1_gaxpy                                1.190564      132030
 lapack                                  1.140005        1135
 overl_mu                                1.074246       14252
 hamilt_local                            0.944442       19000
 w1_dot                                  0.900729       18647
 proall                                  0.898723           1
 w1_daxpy                                0.822251      103318
 lincom                                  0.746664         164
 overl1                                  0.696903       90146
 apply_precond                           0.547916      156995
 rspher_all                              0.527184          14
 init_hip                                0.504435           1
 forhar                                  0.474425           2
 i1                                      0.419135       13117
 stufak                                  0.350387           1
 fordep                                  0.346732           1
 vhamil                                  0.334867       79828
 eccp_nl                                 0.319055      140610
 zhegv                                   0.317603       33012
 forloc                                  0.315115           1
 fft_gq                                  0.314424          39
 brget                                   0.304622        4050
 depsum                                  0.259315          39
 brsav                                   0.225679         943
 setup_precond                           0.154146       21500
 overl                                   0.104947       15286
 densta                                  0.085405          44
 ggemm                                   0.061376        1455
 brpre                                   0.050349          39
 pw_charge                               0.048540       16443
 chggra                                  0.043456           1
 strkin                                  0.022830           1
 strelo                                  0.021299           1
 hip_hipfft_makeplans                    0.020976           3
 hip_hipfft_makeplan                     0.020970           6
 m_bcast_d                               0.018001          45
 inisym                                  0.012159           1
 brgrid                                  0.012110           1
 truncate_high_frequency_w1              0.011869       82328
 strehar                                 0.011736           1
 fewald                                  0.009435           1
 rsp                                     0.007154           1
 rcp                                     0.000533           1
 hip_init_hipblas                        0.000316           1
 vectorpot                               0.000186          40
 set_dd_magatom                          0.000167          41
 hip_init_rocsolver                      0.000070           1
 crpa_reader                             0.000065           1
 shift_bands_between_low_high            0.000058          76
 potlok_metagga                          0.000029          40
 posmap                                  0.000020           2
 rotate_active_occupied_orbital          0.000006           1
 redis_pw_over_bands                     0.000000           1

Profiling took   0.499291  0.295421  0.002914  0.002787 seconds
Profiling took   0.363688 seconds