 vasp.6.3.2 27Jun22 (build Mar 15 2023 15:45:48) complex

 executed on             LinuxIFC date 2024.07.19  23:45:24

 INCAR:
   SYSTEM = ni3al
   PREC = Accurate
   EDIFF = 1E-6
   EDIFFG = -1E-2
   ISTART = 0
   ICHARG = 2
   LREAL = Auto
   NSW = 0
   ISIF = 2
   IBRION = -1
   ISMEAR = -5
   SIGMA = 0.1
   ENCUT = 530
   ALGO = Fast
   LMAXMIX = 4
   AMIN = 0.01
   NELM = 150
   LCHARG = .F.
   LWAVE = .F.
   NCORE = 4
   KPAR = 1
   LELF = .T.

 POTCAR:   PAW_PBE C 08Apr2002
 POTCAR:   PAW_PBE F 08Apr2002
 POTCAR:   PAW_PBE Si 05Jan2001
 POTCAR:   PAW_PBE K_sv 06Sep2000
 POTCAR:   PAW_PBE C 08Apr2002
   VRHFIN =C: s2p2

   TITEL  = PAW_PBE C 08Apr2002
   POMASS =   12.011; ZVAL   =    4.000    mass and valenz
   ENMAX  =  400.000; ENMIN  =  300.000 eV
   QCUT   =   -5.516; QGAM   =   11.032    optimization parameters

   Description
     l     E      TYP  RCUT    TYP  RCUT
     0   .000     23  1.200
     0   .000     23  1.200
     1   .000     23  1.500
     1  2.500     23  1.500
     2   .000      7  1.500

 POTCAR:   PAW_PBE F 08Apr2002
   VRHFIN =F: s2p5

   TITEL  = PAW_PBE F 08Apr2002
   POMASS =   18.998; ZVAL   =    7.000    mass and valenz
   ENMAX  =  400.000; ENMIN  =  300.000 eV
   QCUT   =   -5.545; QGAM   =   11.091    optimization parameters

[...]

 POTCAR:   PAW_PBE Si 05Jan2001
   VRHFIN =Si: s2p2

   TITEL  = PAW_PBE Si 05Jan2001
   POMASS =   28.085; ZVAL   =    4.000    mass and valenz
   ENMAX  =  245.345; ENMIN  =  184.009 eV
   QCUT   =   -4.246; QGAM   =    8.493    optimization parameters

[...]

 POTCAR:   PAW_PBE K_sv 06Sep2000
   VRHFIN =K:  3s3p4s

   TITEL  = PAW_PBE K_sv 06Sep2000
   POMASS =   39.098; ZVAL   =    9.000    mass and valenz
   ENMAX  =  259.216; ENMIN  =  194.412 eV
   QCUT   =   -4.365; QGAM   =    8.730    optimization parameters

   Description
     l     E      TYP  RCUT    TYP  RCUT
     0   .000     23  2.300
     0   .000     23  2.300
     1   .000     23  2.300
     1 -1.500     23  2.300
     2   .000     23  2.300

 Optimization of the real space projectors (new method)

 maximal supplied QI-value         = 25.13
 optimisation between [QCUT,QGAM] = [ 11.56, 23.37] = [ 37.43,152.99] Ry
 Optimized for a Real-space Cutoff    1.07 Angstroem

   l    n(q)    QCUT    max X(q) W(low)/X(q) W(high)/X(q)  e(spline)
   0      7    11.561     5.582    0.43E-04    0.82E-04    0.19E-07
   0      7    11.561    69.432    0.18E-03    0.47E-03    0.23E-06
   1      7    11.561     2.780    0.18E-04    0.55E-04    0.48E-07
   1      7    11.561     4.549    0.18E-03    0.21E-03    0.13E-06
 Optimization of the real space projectors (new method)

[...]

   l    n(q)    QCUT    max X(q) W(low)/X(q) W(high)/X(q)  e(spline)
   0      8    11.707     8.708    0.17E-04    0.67E-05    0.45E-08
   0      8    11.707   106.241    0.59E-04    0.18E-03    0.53E-07
   1      8    11.707     5.901    0.60E-05    0.19E-04    0.21E-07
   1      8    11.707    73.241    0.22E-03    0.21E-04    0.75E-07
 Optimization of the real space projectors (new method)

 maximal supplied QI-value         = 16.25
 optimisation between [QCUT,QGAM] = [ 11.70, 23.56] = [ 38.34,155.50] Ry
 Optimized for a Real-space Cutoff    1.35 Angstroem

   l    n(q)    QCUT    max X(q) W(low)/X(q) W(high)/X(q)  e(spline)
   0     10    11.701     6.336    0.13E-04    0.76E-05    0.61E-08
   0     10    11.701    13.439    0.24E-04    0.57E-04    0.47E-07
   1      9    11.701     3.724    0.22E-04    0.12E-04    0.26E-07
   1      9    11.701    38.716    0.12E-03    0.50E-03    0.44E-06
   2      9    11.701     3.434    0.48E-04    0.68E-04    0.36E-07
 PAW_PBE C 08Apr2002                    :
 PAW_PBE F 08Apr2002                    :
 PAW_PBE Si 05Jan2001                   :
 PAW_PBE K_sv 06Sep2000                 :

 POSCAR: POSCAR
  positions in direct lattice
  velocities in cartesian coordinates
 exchange correlation table for  LEXCH =        8
   RHO(1)=    0.500       N(1)  =     2000
   RHO(2)=  100.500       N(2)  =     4000

 VTST: version 4.2, (08/11/21)

 CHAIN: initializing optimizer

 OPT: Using VASP Dynamics algorithm
 CHAIN: Read ICHAIN            0

 POSCAR: POSCAR
  positions in direct lattice
  velocities in cartesian coordinates

 ion  position               nearest neighbor table
   1  0.000  0.000  0.000-  50 1.90
   2  0.167  0.250  0.000-  51 1.90
   3  0.000  0.000  0.389-  80 1.89  57 1.89  73 1.89  52 1.91
   4  0.167  0.250  0.389-  53 1.89  64 1.89  57 1.89  56 1.89
   5  0.000  0.167  0.130-  50 1.90  51 1.90  67 1.90  54 1.90
   6  0.167  0.417  0.130-  51 1.90  82 1.90  74 1.90  55 1.90
   7  0.000  0.333  0.260-  55 1.89  71 1.89  54 1.89  56 1.90
   8  0.167  0.083  0.260-  62 1.89  54 1.89  79 1.89  57 1.90
   9  0.333  0.000  0.000-  58 1.90
  10  0.500  0.250  0.000-  59 1.90
  11  0.333  0.000  0.389-  57 1.89  88 1.89  65 1.89  60 1.90
  12  0.500  0.250  0.389-  65 1.89  64 1.89  72 1.89  61 1.90
  13  0.333  0.167  0.130-  58 1.90  51 1.90  59 1.90  62 1.90
  14  0.500  0.417  0.130-  59 1.90  82 1.90  90 1.90  63 1.90
  15  0.333  0.333  0.260-  55 1.89  63 1.89  62 1.89  64 1.90
  16  0.500  0.083  0.260-  87 1.89  70 1.89  62 1.89  65 1.90
  17  0.667  0.000  0.000-  66 1.90
  18  0.833  0.250  0.000-  67 1.90
  19  0.667  0.000  0.389-  96 1.89  73 1.89  65 1.89  68 1.90
  20  0.833  0.250  0.389-  73 1.89  72 1.89  56 1.89  69 1.90
  21  0.667  0.167  0.130-  66 1.90  67 1.90  59 1.90  70 1.90
  22  0.833  0.417  0.130-  67 1.90  90 1.90  74 1.90  71 1.90
  23  0.667  0.333  0.260-  71 1.89  63 1.89  70 1.89  72 1.90
  24  0.833  0.083  0.260-  70 1.89  54 1.89  95 1.89  73 1.90
  25  0.000  0.500  0.000-  74 1.90
  26  0.167  0.750  0.000-  75 1.90
  27  0.000  0.500  0.389-  56 1.89  81 1.89  97 1.89  76 1.91
  28  0.167  0.750  0.389-  81 1.89  88 1.89  80 1.89  77 1.99
  29  0.000  0.667  0.130-  74 1.90  75 1.90  91 1.90  78 1.90
  30  0.167  0.917  0.130-  75 1.90  58 1.90  50 1.90  79 1.90
  31  0.000  0.833  0.260-  79 1.89  95 1.89  78 1.89  80 1.90
  32  0.167  0.583  0.260-  86 1.89  78 1.89  55 1.89  81 1.90
  33  0.333  0.500  0.000-  82 1.90
  34  0.500  0.750  0.000-  83 1.90
  35  0.333  0.500  0.389-  64 1.89  81 1.89  89 1.89  84 1.93
  36  0.500  0.750  0.389-  89 1.89  88 1.89  96 1.89  85 1.92
  37  0.333  0.667  0.130-  82 1.90  75 1.90  83 1.90  86 1.90
  38  0.500  0.917  0.130-  58 1.90  66 1.90  83 1.90  87 1.90
  39  0.333  0.833  0.260-  79 1.89  87 1.89  86 1.89  88 1.90
  40  0.500  0.583  0.260-  86 1.89  94 1.89  63 1.89  89 1.90
  41  0.667  0.500  0.000-  90 1.90
  42  0.833  0.750  0.000-  91 1.90
  43  0.667  0.500  0.389-  72 1.89  97 1.89  89 1.89  92 1.90
  44  0.833  0.750  0.389-  97 1.89  96 1.89  80 1.89  93 1.90
  45  0.667  0.667  0.130-  90 1.90  91 1.90  83 1.90  94 1.90
  46  0.833  0.917  0.130-  66 1.90  50 1.90  91 1.90  95 1.90
  47  0.667  0.833  0.260-  95 1.89  87 1.89  94 1.89  96 1.90
  48  0.833  0.583  0.260-  94 1.89  78 1.89  71 1.89  97 1.90
  49  0.171  0.735  0.550-  77 1.66  98 2.67
  50  0.000  0.000  0.098-   5 1.90  46 1.90  30 1.90   1 1.90  58 3.09  66 3.09  51 3.09  67 3.09
                            75 3.09  91 3.09  54 3.10  95 3.10  79 3.10
  51  0.167  0.250  0.098-   6 1.90  13 1.90   5 1.90   2 1.90  59 3.09  58 3.09  82 3.09  74 3.09
                            50 3.09  67 3.09  55 3.10  62 3.10  54 3.10
  52  0.975  0.989  0.486-   3 1.91  77 2.47  68 2.85  93 2.90  73 3.02  80 3.03  69 3.13
  53  0.163  0.255  0.486-   4 1.89  84 2.78  76 2.85  69 2.98  61 3.05  56 3.05  64 3.09  57 3.11

  54  0.000  0.167  0.228-  24 1.89   8 1.89   7 1.89   5 1.90  95 3.09  70 3.09  62 3.09  71 3.09
                            79 3.09  55 3.09  73 3.10  57 3.10  56 3.10  50 3.10  67 3.10  51 3.10
  55  0.167  0.417  0.228-  15 1.89   7 1.89  32 1.89   6 1.90  63 3.09  62 3.09  86 3.09  78 3.09
                            54 3.09  71 3.09  64 3.10  56 3.10  81 3.10  51 3.10  82 3.10  74 3.10
  56  0.000  0.333  0.357-  27 1.89  20 1.89   4 1.89   7 1.90  76 2.94  69 3.04  53 3.05  72 3.09
                            64 3.09  73 3.09  81 3.09  97 3.09  57 3.09  71 3.10  55 3.10  54 3.10
  57  0.167  0.083  0.357-  11 1.89   3 1.89   4 1.89   8 1.90  88 3.09  80 3.09  65 3.09  73 3.09
                            64 3.09  56 3.09  62 3.10  54 3.10  79 3.10  53 3.11
  58  0.333  0.000  0.098-  13 1.90  30 1.90  38 1.90   9 1.90  50 3.09  51 3.09  75 3.09  59 3.09
                            83 3.09  66 3.09  62 3.10  79 3.10  87 3.10
  59  0.500  0.250  0.098-  14 1.90  13 1.90  21 1.90  10 1.90  51 3.09  67 3.09  66 3.09  58 3.09
                            82 3.09  90 3.09  63 3.10  62 3.10  70 3.10
  60  0.354  0.992  0.486-  11 1.90  77 2.49  85 2.89  68 2.91  65 3.02  88 3.04  61 3.06
  61  0.491  0.252  0.487-  12 1.90  84 2.76  53 3.05  64 3.05  60 3.06  65 3.11  72 3.13
  62  0.333  0.167  0.228-   8 1.89  16 1.89  15 1.89  13 1.90  87 3.09  54 3.09  79 3.09  55 3.09
                            63 3.09  70 3.09  57 3.10  65 3.10  64 3.10  58 3.10  51 3.10  59 3.10
  63  0.500  0.417  0.228-  15 1.89  23 1.89  40 1.89  14 1.90  55 3.09  71 3.09  70 3.09  62 3.09
                            86 3.09  94 3.09  64 3.10  72 3.10  89 3.10  59 3.10  90 3.10  82 3.10
  64  0.333  0.333  0.357-  35 1.89   4 1.89  12 1.89  15 1.90  84 2.92  61 3.05  53 3.09  56 3.09
                            81 3.09  89 3.09  72 3.09  57 3.09  65 3.09  55 3.10  63 3.10  62 3.10
  65  0.500  0.083  0.357-  11 1.89  19 1.89  12 1.89  16 1.90  60 3.02  88 3.09  96 3.09  57 3.09
                            73 3.09  72 3.09  64 3.09  87 3.10  70 3.10  62 3.10  61 3.11  68 3.14
  66  0.667  0.000  0.098-  46 1.90  21 1.90  38 1.90  17 1.90  50 3.09  67 3.09  91 3.09  83 3.09
                            59 3.09  58 3.09  95 3.10  70 3.10  87 3.10
  67  0.833  0.250  0.098-  22 1.90  21 1.90   5 1.90  18 1.90  59 3.09  66 3.09  90 3.09  74 3.09
                            50 3.09  51 3.09  71 3.10  70 3.10  54 3.10
  68  0.668  0.986  0.486-  19 1.90  85 2.72  93 2.79  52 2.85  60 2.91  96 3.00  73 3.13  65 3.14

  69  0.842  0.257  0.487-  20 1.90  76 2.72  53 2.98  92 3.02  56 3.04  72 3.11  52 3.13  73 3.14

  70  0.667  0.167  0.228-  24 1.89  16 1.89  23 1.89  21 1.90  95 3.09  87 3.09  54 3.09  71 3.09
                            63 3.09  62 3.09  73 3.10  65 3.10  72 3.10  66 3.10  67 3.10  59 3.10
  71  0.833  0.417  0.228-  23 1.89   7 1.89  48 1.89  22 1.90  63 3.09  70 3.09  94 3.09  78 3.09
                            54 3.09  55 3.09  72 3.10  56 3.10  97 3.10  67 3.10  90 3.10  74 3.10
  72  0.667  0.333  0.357-  43 1.89  20 1.89  12 1.89  23 1.90  56 3.09  73 3.09  97 3.09  89 3.09
                            64 3.09  65 3.09  71 3.10  63 3.10  70 3.10  92 3.11  69 3.11  61 3.13
  73  0.833  0.083  0.357-  20 1.89  19 1.89   3 1.89  24 1.90  52 3.02  65 3.09  72 3.09  96 3.09
                            80 3.09  56 3.09  57 3.09  70 3.10  54 3.10  95 3.10  68 3.13  69 3.14
  74  0.000  0.500  0.098-  29 1.90  22 1.90   6 1.90  25 1.90  82 3.09  90 3.09  75 3.09  51 3.09
                            67 3.09  91 3.09  78 3.10  71 3.10  55 3.10
[...]
  329          setg0                                 0.008654                          1   4
  330          broyd                                 0.028583                          1   4
  331            m_sumb_d                              0.000108                       39   5
  332            brget                                 0.003254                      169   5
  333            brsav                                 0.002170                       37   5
  334        m_bcast_d                             0.000050                            2   3
  335      potlok                                0.471464                              1   2
  336        fft3d_mpi                             0.192200                           13   3
  337          fftbrc_mpi                            0.170222                         13   4
  338            fftbas_plan_mpi                       0.170208                       13   5
  339              dfftw_execute                         0.055030                     39   6
  340              map_forward                           0.049307                     14   6
  341                map_gather                            0.013605                    8   7
  342                m_alltoallv_z                         0.027034                    8   7
  343                map_scatter                           0.008611                    8   7
  344              map_backward                          0.064574                     12   6
  345                map_gather                            0.008653                    6   7
  346                m_alltoallv_z                         0.019844                    6   7
  347                map_scatter                           0.036022                    6   7
  348        ggaall_grid                           0.062219                            1   3
  349        m_sumb_d                              0.000540                            5   3
  350        pothar                                0.010429                            1   3
  351          m_sumb_d                              0.000016                          1   4
  352        m_bcast_d                             0.002725                            1   3
  353      potlok_metagga                        0.000001                              1   2
  354      set_dd_magatom                        0.000005                              1   2
  355      set_dd_paw                            0.026925                              1   2
  356        m_sumb_d                              0.001862                            7   3
  357      m_bcast_d                             0.000031                              2   2
  358      fftwav_mpi                            7.012267                           1323   2
  359        fftwav                                7.002914                         1323   3
  360          fft3d                                 4.971561                       1323   4
  361      densta                                0.018619                              1   2

 Flat profile

 i2                                     35.784600        9822
 eddiag                                 32.064160          32
 eddav                                  28.142106           5
 hamiltmu                               26.060415       13774
 m_sumb_d                               24.232244       14264
 newband                                12.030468       14033
 total_time                             11.798065           1
 i3                                     11.086159        9822
 rpromu_acc                             10.797153       14110
 fft3d                                   8.689608      158212
 potlok                                  7.052291          34
 phaser                                  5.503318         350
 orthch                                  5.461551          33
 lapack                                  3.807965        3952
 orth1                                   3.524677       12311
 racc0mu_acc                             3.373381       13774
 raccmu_                                 3.089710       13774
 m_alltoall_d                            2.772680      213878
 fftwav                                  2.691909       98247
 choleski                                2.461869         231
 cnorma                                  2.388774      155550
 ggaall_grid                             2.161992          35
 dfftw_execute                           2.054970        1590
 m_alltoallv_z                           2.004162         610
 w1_gemv                                 1.833575      261864
 map_scatter                             1.736350         610
 m_bcast_z                               1.298670        5716
 eccp                                    1.272765       68167
 w1_copy                                 1.094506      137516
 overl_mu                                1.063272       13774
 fft3d_mpi                               1.014886       60498
 setdij_                                 0.994551          61
 w1_dscal                                0.934742      109836
 set_dd_paw                              0.875494          35
 map_gather                              0.858332         610
 lincom                                  0.780771         490
 augmentation_charge                     0.745715          33
 w1_gaxpy                                0.726143       96220
 densta                                  0.689240          38
 w1_dot                                  0.684039       13950
 w1_daxpy                                0.524412       75886
 rspher_all                              0.522328          14
 redis_pw                                0.481028       22243
 redis_proj                              0.432386       28017
 overl1                                  0.423048       65466
 init_hip                                0.416363           1
 apply_precond                           0.359194      115802
 pothar                                  0.353957          35
 elmin                                   0.309041           1
 setg0                                   0.299394          34
 broyd                                   0.282717          33
 eddrmm                                  0.246063          32
 zhegv                                   0.235863       23993
 ggemm                                   0.233798        5072
 kinhamil                                0.224863       59965
 vhamil                                  0.220389       59965
 fftext_mpi                              0.219239       59965
 eccp_nl                                 0.181912      103700
 force_and_stress                        0.175724           1
 fftwav_mpi                              0.161430       98247
 depsum                                  0.153158          33
 soft_charge                             0.145158          33
 brmix                                   0.141566          33
 m_bcast_d                               0.130120        7942
 forhar                                  0.127602           2
 overl                                   0.122254       13746
 setup_precond                           0.107493       16317
 fftbas_plan_mpi                         0.104535         533
 stufak                                  0.097140           1
 forloc                                  0.086182           1
 set_charge                              0.070246          33
 proall                                  0.066522           1
 rpro_isp                                0.057357          91
 brget                                   0.055205        2931
 pw_charge                               0.033898       11776
 brsav                                   0.030496         699
 strnlr                                  0.023874           1
 hip_hipfft_makeplan                     0.019837           6
 i1                                      0.019600        9822
 strkin                                  0.018072           1
 fft_gq                                  0.015151          33
 hamilt_local                            0.013159       14112
 w1_projall                              0.013093       12654
 brpre                                   0.012344          33
 inisym                                  0.011902           1
 truncate_high_frequency_w1              0.009088       62170
 rsp                                     0.008324           1
 fornlr                                  0.007641           1
 strelo                                  0.007256           1
 strehar                                 0.004264           1
 brgrid                                  0.003315           1
 chggra                                  0.003059           1
 map_backward                            0.002389         560
 map_forward                             0.002132         506
 fewald                                  0.001560           1
 fftbrc_mpi                              0.000710         533
 rcp                                     0.000565           1
 hip_init_hipblas                        0.000270           1
 set_dd_magatom                          0.000232          35
 vectorpot                               0.000208          34
 shift_bands_between_low_high            0.000148         224
 hip_init_rocsolver                      0.000069           1
 crpa_reader                             0.000052           1
 fordep                                  0.000047           1
 potlok_metagga                          0.000029          34
 posmap                                  0.000021           2
 hip_hipfft_makeplans                    0.000005           3
 rotate_active_occupied_orbital          0.000005           1
 redis_pw_over_bands                     0.000000           1
  summed up times    273.667774915695

 Accumulative profile

 total_time                            273.667775           1
 elmin                                 240.742990           1
 eddrmm                                114.852848          32
 eddav                                  48.714032           5
 i2                                     41.665102        9822
 eddiag                                 35.213954          32
 hamiltmu                               35.168711       13774
 m_sumb_d                               24.232244       14264
 orthch                                 17.207842          33
 potlok                                 16.198179          34
 i3                                     16.127981        9822
 newband                                13.218887       14033
 rpromu_acc                             10.797153       14110
 fftwav_mpi                             10.186515       98247
 fftwav                                 10.025085       98247
 set_charge                              9.840555          33
 fft3d_mpi                               9.134897       60498
 fft3d                                   8.689608      158212
 soft_charge                             8.300655          33
 raccmu_                                 7.526363       13774
 force_and_stress                        7.167053           1
 w1_projall                              6.950263       12654
 fftbrc_mpi                              6.763580         533
 fftbas_plan_mpi                         6.762870         533
 phaser                                  5.503318         350
 rpro_isp                                4.242421          91
 strnlr                                  4.229576           1
 lapack                                  3.807965        3952
 orth1                                   3.524677       12311
 racc0mu_acc                             3.373381       13774
 map_backward                            2.867202         560
 m_alltoall_d                            2.772680      213878
 cnorma                                  2.570686      155550
 choleski                                2.461869         231
 w1_gemv                                 2.256623      261864
 ggaall_grid                             2.161992          35
 dfftw_execute                           2.054970        1590
 m_alltoallv_z                           2.004162         610
 redis_proj                              1.913128       28017
 kinhamil                                1.834123       59965
 redis_pw                                1.772967       22243
 map_scatter                             1.736350         610
 map_forward                             1.736163         506
 fftext_mpi                              1.609260       59965
 fornlr                                  1.407211           1
 augmentation_charge                     1.299460          33
 m_bcast_z                               1.298670        5716
 eccp                                    1.272765       68167
 w1_copy                                 1.094506      137516
 overl_mu                                1.063272       13774
 setdij_                                 1.028297          61
 set_dd_paw                              0.947985          35
 w1_dscal                                0.934742      109836
 map_gather                              0.858332         610
 brmix                                   0.832707          33
 lincom                                  0.780771         490
 w1_gaxpy                                0.726143       96220
 densta                                  0.689240          38
 w1_dot                                  0.684039       13950
 proall                                  0.615814           1
 w1_daxpy                                0.524412       75886
 rspher_all                              0.522328          14
 hamilt_local                            0.485738       14112
 overl1                                  0.423048       65466
 init_hip                                0.416363           1
 pothar                                  0.407439          35
 broyd                                   0.370763          33
 apply_precond                           0.359194      115802
 fft_gq                                  0.323731          33
 setg0                                   0.299394          34
 i1                                      0.278461        9822
 zhegv                                   0.235863       23993
 ggemm                                   0.233798        5072
 vhamil                                  0.220389       59965
 eccp_nl                                 0.181912      103700
 depsum                                  0.170195          33
 m_bcast_d                               0.130120        7942
 forhar                                  0.128008           2
 overl                                   0.122254       13746
 setup_precond                           0.107493       16317
 fordep                                  0.098440           1
 stufak                                  0.097140           1
 forloc                                  0.089564           1
 chggra                                  0.066276           1
 brget                                   0.055205        2931
 pw_charge                               0.033898       11776
 brsav                                   0.030496         699
 hip_hipfft_makeplans                    0.019842           3
 hip_hipfft_makeplan                     0.019837           6
 strkin                                  0.018172           1
 brpre                                   0.012344          33
 inisym                                  0.011923           1
 fewald                                  0.010661           1
 truncate_high_frequency_w1              0.009088       62170
 rsp                                     0.008324           1
 strelo                                  0.007268           1
 strehar                                 0.004524           1
 brgrid                                  0.003315           1
 rcp                                     0.000565           1
 hip_init_hipblas                        0.000270           1
 set_dd_magatom                          0.000232          35
 vectorpot                               0.000208          34
 shift_bands_between_low_high            0.000148         224
 hip_init_rocsolver                      0.000069           1
 crpa_reader                             0.000052           1
 potlok_metagga                          0.000029          34
 posmap                                  0.000021           2
 rotate_active_occupied_orbital          0.000005           1
 redis_pw_over_bands                     0.000000           1

Profiling took   0.464170  0.260404  0.002931  0.002785 seconds
Profiling took   0.316790 seconds