 vasp.6.3.2 27Jun22 (build Mar 15 2023 15:45:48) complex

 executed on             LinuxIFC date 2024.07.25  09:11:25

 INCAR:
   SYSTEM = ni3al
   PREC = Accurate
   EDIFF = 1E-6
   EDIFFG = -1E-2
   ISTART = 0
   ICHARG = 2
   LREAL = Auto
   NSW = 0
   ISIF = 2
   IBRION = -1
   ISMEAR = -5
   SIGMA = 0.1
   ENCUT = 530
   ALGO = Fast
   LMAXMIX = 4
   AMIN = 0.01
   NELM = 150
   LCHARG = .F.
   LWAVE = .T.
   NCORE = 4
   KPAR = 1
   LELF = .T.

 POTCAR:    PAW_PBE O 08Apr2002
 POTCAR:    PAW_PBE F 08Apr2002
 POTCAR:    PAW_PBE Al 04Jan2001
 POTCAR:    PAW_PBE K_sv 06Sep2000
 POTCAR:    PAW_PBE O 08Apr2002
   VRHFIN =O: s2p4

   TITEL  = PAW_PBE O 08Apr2002
   POMASS =   16.000; ZVAL   =    6.000    mass and valenz
   ENMAX  =  400.000; ENMIN  =  300.000 eV

 POTCAR:    PAW_PBE F 08Apr2002
   VRHFIN =F: s2p5

   TITEL  = PAW_PBE F 08Apr2002
   POMASS =   18.998; ZVAL   =    7.000    mass and valenz
   ENMAX  =  400.000; ENMIN  =  300.000 eV

 POTCAR:    PAW_PBE Al 04Jan2001
   VRHFIN =Al: s2p1

   TITEL  = PAW_PBE Al 04Jan2001
   POMASS =   26.981; ZVAL   =    3.000    mass and valenz
   ENMAX  =  240.300; ENMIN  =  180.225 eV

 POTCAR:    PAW_PBE K_sv 06Sep2000
   VRHFIN =K:  3s3p4s

   TITEL  = PAW_PBE K_sv 06Sep2000
   POMASS =   39.098; ZVAL   =    9.000    mass and valenz
   ENMAX  =  259.264; ENMIN  =  194.448 eV

 Optimization of the real space projectors (new method)

 maximal supplied QI-value         = 24.76
 optimisation between [QCUT,QGAM] = [ 11.64, 23.52] = [ 37.91,154.88] Ry
 Optimized for a Real-space Cutoff    1.16 Angstroem

   l    n(q)    QCUT    max X(q) W(low)/X(q) W(high)/X(q)  e(spline)
   0      8    11.635    20.381    0.63E-04    0.20E-03    0.27E-06
   0      8    11.635    15.268    0.67E-04    0.21E-03    0.29E-06
   1      8    11.635     5.964    0.19E-03    0.13E-03    0.31E-06
   1      8    11.635     5.382    0.18E-03    0.10E-03    0.27E-06
 Optimization of the real space projectors (new method)

[...]

   l    n(q)    QCUT    max X(q) W(low)/X(q) W(high)/X(q)  e(spline)
   0      8    11.707   176.870    0.56E-04    0.14E-03    0.47E-07
   0      8    11.707   105.762    0.55E-04    0.13E-03    0.46E-07
   1      8    11.707    55.370    0.15E-03    0.19E-04    0.75E-07
   1      8    11.707    20.208    0.14E-03    0.15E-04    0.69E-07
 Optimization of the real space projectors (new method)

 maximal supplied QI-value         = 16.25
 optimisation between [QCUT,QGAM] = [ 11.70, 23.56] = [ 38.34,155.50] Ry
 Optimized for a Real-space Cutoff    1.35 Angstroem

   l    n(q)    QCUT    max X(q) W(low)/X(q) W(high)/X(q)  e(spline)
   0     10    11.701    11.234    0.18E-04    0.29E-04    0.22E-07
   0     10    11.701    12.505    0.24E-04    0.57E-04    0.47E-07
   1      9    11.701   167.359    0.12E-03    0.49E-03    0.44E-06
   1      9    11.701   168.875    0.12E-03    0.49E-03    0.44E-06
   2      9    11.701     3.435    0.48E-04    0.68E-04    0.36E-07
  PAW_PBE O 08Apr2002                   :
  PAW_PBE F 08Apr2002                   :
  PAW_PBE Al 04Jan2001                  :
  PAW_PBE K_sv 06Sep2000                :

 POSCAR: SCAR
  positions in direct lattice
  velocities in cartesian coordinates
 exchange correlation table for  LEXCH =        8
   RHO(1)=    0.500       N(1)  =     2000
   RHO(2)=  100.500       N(2)  =     4000

 VTST: version 4.2, (08/11/21)

 CHAIN: initializing optimizer

 OPT: Using VASP Dynamics algorithm
 CHAIN: Read ICHAIN            0

 POSCAR: SCAR
  positions in direct lattice
  velocities in cartesian coordinates

 ion  position               nearest neighbor table
   1  0.173  0.986  0.000-  54 1.87  53 1.99
   2  0.423  0.486  0.000-  55 1.87  64 1.99
   3  0.097  0.500  0.101-  50 1.87  52 1.87  61 1.99  55 1.99
   4  0.347  0.000  0.101-  51 1.87  53 1.87  72 1.99  66 1.99
   5  0.153  0.333  0.000-  55 1.87  52 1.99
   6  0.403  0.833  0.000-  66 1.87  53 1.99
   7  0.173  0.680  0.000-  55 1.87  53 1.99
   8  0.423  0.180  0.000-  66 1.87  64 1.99
   9  0.077  0.153  0.101-  51 1.87  52 1.87  60 1.99  54 1.99
  10  0.327  0.653  0.101-  62 1.87  53 1.87  61 1.99  55 1.99
  11  0.077  0.847  0.101-  53 1.87  50 1.87  60 1.99  54 1.99
  12  0.327  0.347  0.101-  64 1.87  51 1.87  61 1.99  55 1.99
  13  0.173  0.320  0.203-  58 1.87  61 1.87  57 1.99  51 1.99
  14  0.423  0.820  0.203-  59 1.87  72 1.87  68 1.99  62 1.99
  15  0.112  0.835  0.305-  22 1.44  59 1.90  56 1.97
  16  0.371  0.290  0.303-  57 1.76  70 1.84  74 2.68
  17  0.153  0.667  0.203-  59 1.87  61 1.87  56 1.99  50 1.99
  18  0.403  0.167  0.203-  70 1.87  72 1.87  57 1.99  51 1.99
  19  0.173  0.014  0.203-  60 1.87  59 1.87  57 1.99  51 1.99
  20  0.423  0.514  0.203-  61 1.87  70 1.87  68 1.99  62 1.99
  21  0.065  0.483  0.301-  56 1.82  58 1.88  74 2.64
  22  0.045  0.982  0.324-  23 1.40  15 1.44
  23  0.151  0.096  0.330-  22 1.40  57 1.80
  24  0.343  0.722  0.302-  68 1.78  59 1.83  74 2.72
  25  0.673  0.986  0.000-  66 1.87  65 1.99
  26  0.923  0.486  0.000-  67 1.87  52 1.99
  27  0.597  0.500  0.101-  62 1.87  64 1.87  73 1.99  67 1.99
  28  0.847  0.000  0.101-  63 1.87  65 1.87  60 1.99  54 1.99
  29  0.653  0.333  0.000-  67 1.87  64 1.99
  30  0.903  0.833  0.000-  54 1.87  65 1.99
  31  0.673  0.680  0.000-  67 1.87  65 1.99
  32  0.923  0.180  0.000-  54 1.87  52 1.99
  33  0.577  0.153  0.101-  63 1.87  64 1.87  72 1.99  66 1.99
  34  0.827  0.653  0.101-  50 1.87  65 1.87  73 1.99  67 1.99
  35  0.577  0.847  0.101-  65 1.87  62 1.87  72 1.99  66 1.99
  36  0.827  0.347  0.101-  52 1.87  63 1.87  73 1.99  67 1.99
  37  0.673  0.320  0.203-  70 1.87  73 1.87  69 1.99  63 1.99
  38  0.923  0.820  0.203-  71 1.87  60 1.87  56 1.99  50 1.99
  39  0.609  0.838  0.304-  46 1.45  71 1.91  68 1.96
  40  0.887  0.261  0.305-  69 1.76  58 1.83
  41  0.653  0.667  0.203-  71 1.87  73 1.87  68 1.99  62 1.99
  42  0.903  0.167  0.203-  58 1.87  60 1.87  69 1.99  63 1.99
  43  0.673  0.014  0.203-  72 1.87  71 1.87  69 1.99  63 1.99
  44  0.923  0.514  0.203-  58 1.87  73 1.87  56 1.99  50 1.99
  45  0.595  0.490  0.299-  49 1.46  68 1.88  70 2.01
  46  0.532  0.984  0.319-  47 1.40  39 1.45
  47  0.627  0.110  0.325-  46 1.40  69 1.81
  48  0.848  0.747  0.303-  71 1.77  56 1.80
  49  0.559  0.476  0.365-  45 1.46
  50  0.000  0.667  0.141-  34 1.87   3 1.87  11 1.87  17 1.99  44 1.99  38 1.99  56 2.68  60 2.82
                            61 2.82  73 2.82  65 3.25  53 3.25  52 3.25
  51  0.250  0.167  0.141-   9 1.87  12 1.87   4 1.87  19 1.99  13 1.99  18 1.99  57 2.68  61 2.82
                            60 2.82  72 2.82  64 3.25  52 3.25  53 3.25
  52  0.000  0.333  0.062-  36 1.87   3 1.87   9 1.87  26 1.99  32 1.99   5 1.99  54 2.82  55 2.82
                            67 2.82  63 3.25  51 3.25  50 3.25
  53  0.250  0.833  0.062-  11 1.87  10 1.87   4 1.87   7 1.99   1 1.99   6 1.99  55 2.82  54 2.82
                            66 2.82  62 3.25  50 3.25  51 3.25
  54  0.000  0.000  0.039-  32 1.87   1 1.87  30 1.87  28 1.99  11 1.99   9 1.99  60 2.68  52 2.82
                            53 2.82  65 2.82
  55  0.250  0.500  0.039-   2 1.87   5 1.87   7 1.87  10 1.99  12 1.99   3 1.99  61 2.68  53 2.82
                            52 2.82  64 2.82
  56  0.000  0.667  0.265-  48 1.80  21 1.82  15 1.97  17 1.99  44 1.99  38 1.99  50 2.68  59 2.82
                            71 2.82  58 2.82
  57  0.250  0.167  0.265-  16 1.76  23 1.80  19 1.99  13 1.99  18 1.99  51 2.68  58 2.82  70 2.82
                            59 2.82
  58  0.000  0.333  0.242-  40 1.83  42 1.87  13 1.87  44 1.87  21 1.88  57 2.82  69 2.82  56 2.82
                            60 3.25  61 3.25  73 3.25
  59  0.250  0.833  0.242-  24 1.83  14 1.87  17 1.87  19 1.87  15 1.90  56 2.82  68 2.82  57 2.82
                            61 3.25  60 3.25  72 3.25
  60  0.000  0.000  0.164-  38 1.87  19 1.87  42 1.87  28 1.99   9 1.99  11 1.99  54 2.68  50 2.82
                            51 2.82  63 2.82  58 3.25  59 3.25  71 3.25
  61  0.250  0.500  0.164-  13 1.87  20 1.87  17 1.87  12 1.99  10 1.99   3 1.99  55 2.68  51 2.82
                            50 2.82  62 2.82  59 3.25  58 3.25  70 3.25
  62  0.500  0.667  0.141-  10 1.87  35 1.87  27 1.87  20 1.99  14 1.99  41 1.99  68 2.68  72 2.82
                            61 2.82  73 2.82  65 3.25  53 3.25  64 3.25
  63  0.750  0.167  0.141-  33 1.87  36 1.87  28 1.87  43 1.99  37 1.99  42 1.99  69 2.68  73 2.82
                            72 2.82  60 2.82  64 3.25  52 3.25  65 3.25
  64  0.500  0.333  0.062-  12 1.87  33 1.87  27 1.87   2 1.99   8 1.99  29 1.99  66 2.82  55 2.82
                            67 2.82  51 3.25  63 3.25  62 3.25
  65  0.750  0.833  0.062-  35 1.87  34 1.87  28 1.87  25 1.99  31 1.99  30 1.99  67 2.82  66 2.82
                            54 2.82  50 3.25  62 3.25  63 3.25
  66  0.500  0.000  0.039-   8 1.87  25 1.87   6 1.87   4 1.99  33 1.99  35 1.99  72 2.68  64 2.82
                            65 2.82  53 2.82
  67  0.750  0.500  0.039-  31 1.87  26 1.87  29 1.87  27 1.99  34 1.99  36 1.99  73 2.68  65 2.82
                            52 2.82  64 2.82
  68  0.500  0.667  0.265-  24 1.78  45 1.88  39 1.96  20 1.99  14 1.99  41 1.99  62 2.68  59 2.82
                            71 2.82  70 2.82
  69  0.750  0.167  0.265-  40 1.76  47 1.81  43 1.99  37 1.99  42 1.99  63 2.68  58 2.82  70 2.82
                            71 2.82
  70  0.500  0.333  0.242-  16 1.84  18 1.87  37 1.87  20 1.87  45 2.01  57 2.82  69 2.82  68 2.82
                            72 3.25  61 3.25  73 3.25
  71  0.750  0.833  0.242-  48 1.77  41 1.87  38 1.87  43 1.87  39 1.91  56 2.82  68 2.82  69 2.82
                            73 3.25  72 3.25  60 3.25
  72  0.500  0.000  0.164-  14 1.87  43 1.87  18 1.87   4 1.99  35 1.99  33 1.99  66 2.68  62 2.82
                            63 2.82  51 2.82  70 3.25  59 3.25  71 3.25
  73  0.750  0.500  0.164-  37 1.87  44 1.87  41 1.87  27 1.99  36 1.99  34 1.99  67 2.68  63 2.82
                            50 2.82  62 2.82  71 3.25  70 3.25  58 3.25
  74  0.262  0.494  0.386-  21 2.64  16 2.68  24 2.72

  LATTYP: Found a simple orthorhombic cell.
 ALAT       =     8.3267490000
 B/A-ratio  =     1.1547005920
 C/A-ratio  =     2.5893165508

  Lattice vectors:

 A1 = (   0.0000000000,  -8.3267490000,   0.0000000000)
 A2 = (   9.6149020000,   0.0000000000,   0.0000000000)
 A3 = (   0.0000000000,   0.0000000000,  21.5605890000)

Analysis of symmetry for initial positions (statically):
 Subroutine PRICEL returns:
 Original cell was already a primitive cell.

 Routine SETGRP: Setting up the symmetry group for a
 simple orthorhombic supercell.

 Subroutine GETGRP returns: Found  1 space group operations
 (whereof  1 operations were pure point group operations)
 out of a pool of  8 trial point group operations.

The static configuration has the point symmetry C_1 .

Analysis of symmetry for dynamics (positions and initial velocities):
 Subroutine PRICEL returns:
 Original cell was already a primitive cell.

[...]

The dynamic configuration has the point symmetry C_1 .

Analysis of constrained symmetry for selective dynamics:
 Subroutine PRICEL returns:
[...]
  329          setg0                                 0.010926                          1   4
  330          broyd                                 0.044501                          1   4
  331            m_sumb_d                              0.013452                       49   5
  332            brget                                 0.003390                      219   5
  333            brsav                                 0.001888                       47   5
  334        m_bcast_d                             0.000095                            2   3
  335      potlok                                0.415427                              1   2
  336        fft3d_mpi                             0.161472                           13   3
  337          fftbrc_mpi                            0.136039                         13   4
  338            fftbas_plan_mpi                       0.136022                       13   5
  339              dfftw_execute                         0.043037                     39   6
  340              map_forward                           0.044926                     14   6
  341                map_gather                            0.014691                    8   7
  342                m_alltoallv_z                         0.022028                    8   7
  343                map_scatter                           0.008146                    8   7
  344              map_backward                          0.046882                     12   6
  345                map_gather                            0.007485                    6   7
  346                m_alltoallv_z                         0.021703                    6   7
  347                map_scatter                           0.017653                    6   7
  348        ggaall_grid                           0.051145                            1   3
  349        m_sumb_d                              0.000044                            5   3
  350        pothar                                0.011967                            1   3
  351          m_sumb_d                              0.002812                          1   4
  352        m_bcast_d                             0.002358                            1   3
  353      potlok_metagga                        0.000000                              1   2
  354      set_dd_magatom                        0.000002                              1   2
  355      set_dd_paw                            0.023447                              1   2
  356        m_sumb_d                              0.001671                            7   3
  357      m_bcast_d                             0.000025                              2   2
  358      fftwav_mpi                            5.931002                           1197   2
  359        fftwav                                5.922363                         1197   3
  360          fft3d                                 3.818062                       1197   4
  361      densta                                0.016553                              1   2

 Flat profile

 eddiag                                 32.954271          52
 i2                                     25.602383       12599
 eddav                                  19.893758           5
 m_sumb_d                               18.852399       16189
 hamiltmu                               13.981982       16065
 i3                                     12.797642       12599
 total_time                             12.338905           1
 potlok                                 10.012006          54
 rpromu_acc                              9.497688       16415
 newband                                 8.436911       16464
 orthch                                  7.445850          53
 fft3d                                   7.305678      200857
 phaser                                  6.346773         490
 m_alltoall_d                            3.906604      279629
 orth1                                   3.738685       11133
 choleski                                3.638428         371
 racc0mu_acc                             3.537666       16065
 raccmu_                                 3.479317       16065
 lapack                                  3.330331        3466
 m_alltoallv_z                           3.273846         950
 cnorma                                  3.173705      202947
 fftwav                                  3.042239      124827
 ggaall_grid                             2.710797          55
 dfftw_execute                           2.657096        2490
 w1_gemv                                 2.139972      273896
 map_scatter                             2.032861         950
 eccp                                    1.915985       90392
 fft3d_mpi                               1.899459       76863
 w1_copy                                 1.556284      165846
 overl_mu                                1.288583       16065
 w1_dscal                                1.287716      130988
 map_gather                              1.195932         950
 set_dd_paw                              1.190739          55
 m_bcast_z                               1.045810        5062
 w1_dot                                  0.975327       19944
 lincom                                  0.962713         770
 densta                                  0.953538          58
 setdij_                                 0.953284          81
 augmentation_charge                     0.926280          53
 w1_gaxpy                                0.770876       91161
 w1_daxpy                                0.765137       95410
 broyd                                   0.734234          53
 redis_pw                                0.643713       20228
 redis_proj                              0.617715       25377
 overl1                                  0.505400       68474
 pothar                                  0.499934          55
 setg0                                   0.452350          54
 rspher_all                              0.436056          14
 init_hip                                0.419708           1
 apply_precond                           0.410129      115883
 eddrmm                                  0.349259          52
 elmin                                   0.342672           1
 kinhamil                                0.319966       76030
 vhamil                                  0.312091       76030
 fftext_mpi                              0.311329       76030
 eccp_nl                                 0.274770      135298
 zhegv                                   0.246312       27761
 ggemm                                   0.219161        4481
 depsum                                  0.217993          53
 brmix                                   0.210381          53
 soft_charge                             0.202773          53
 fftwav_mpi                              0.198437      124827
 m_bcast_d                               0.167497        6990
 setup_precond                           0.165600       22743
 force_and_stress                        0.154434           1
 forhar                                  0.149652           2
 overl                                   0.147468       12286
 fftbas_plan_mpi                         0.142176         833
 brget                                   0.115113        7320
 set_charge                              0.103832          53
 forloc                                  0.076124           1
 stufak                                  0.071959           1
 brsav                                   0.066690        1832
 pw_charge                               0.056386       17691
 proall                                  0.053623           1
 rpro_isp                                0.042826          91
 brgrid                                  0.027441           1
 i1                                      0.025435       12599
 fft_gq                                  0.023281          53
 hamilt_local                            0.020645       20748
 strnlr                                  0.018469           1
 hip_hipfft_makeplan                     0.017363           6
 strkin                                  0.016872           1
 w1_projall                              0.016184       15050
 brpre                                   0.015619          53
 inisym                                  0.011796           1
 truncate_high_frequency_w1              0.010501       78025
 strelo                                  0.006118           1
 fornlr                                  0.005419           1
 rsp                                     0.004857           1
 strehar                                 0.004221           1
 map_backward                            0.003506         880
 chggra                                  0.003452           1
 map_forward                             0.003066         786
 fewald                                  0.001513           1
 fftbrc_mpi                              0.001089         833
 rcp                                     0.000410           1
 set_dd_magatom                          0.000369          55
 vectorpot                               0.000343          54
 hip_init_rocsolver                      0.000242           1
 shift_bands_between_low_high            0.000227         364
 hip_init_hipblas                        0.000193           1
 crpa_reader                             0.000051           1
 fordep                                  0.000040           1
 potlok_metagga                          0.000040          54
 posmap                                  0.000018           2
 hip_hipfft_makeplans                    0.000006           3
 rotate_active_occupied_orbital          0.000006           1
 redis_pw_over_bands                     0.000000           1
  summed up times    253.492008209229

 Accumulative profile

 total_time                            253.492008           1
 elmin                                 223.487865           1
 eddrmm                                 96.655516          52
 eddiag                                 37.386199          52
 eddav                                  34.822891           5
 i2                                     32.545848       12599
 hamiltmu                               23.958331       16065
 orthch                                 22.986597          53
 potlok                                 22.822731          54
 i3                                     19.857871       12599
 m_sumb_d                               18.852399       16189
 fft3d_mpi                              12.487685       76863
 newband                                10.015548       16464
 rpromu_acc                              9.497688       16415
 fftbrc_mpi                              9.309571         833
 fftbas_plan_mpi                         9.308481         833
 fftwav_mpi                              9.267698      124827
 fftwav                                  9.069261      124827
 raccmu_                                 8.305567       16065
 set_charge                              8.248217          53
 w1_projall                              7.671121       15050
 fft3d                                   7.305678      200857
 phaser                                  6.346773         490
 soft_charge                             6.204260          53
 force_and_stress                        4.657000           1
 m_alltoall_d                            3.906604      279629
 map_backward                            3.771816         880
 orth1                                   3.738685       11133
 choleski                                3.638428         371
 racc0mu_acc                             3.537666       16065
 cnorma                                  3.448475      202947
 lapack                                  3.330331        3466
 m_alltoallv_z                           3.273846         950
 map_forward                             2.737394         786
 redis_proj                              2.715918       25377
 ggaall_grid                             2.710797          55
 dfftw_execute                           2.657096        2490
 w1_gemv                                 2.645372      273896
 strnlr                                  2.553053           1
 redis_pw                                2.452114       20228
 rpro_isp                                2.113549          91
 map_scatter                             2.032861         950
 kinhamil                                1.954037       76030
 eccp                                    1.915985       90392
 brmix                                   1.811781          53
 augmentation_charge                     1.698562          53
 fftext_mpi                              1.634071       76030
 w1_copy                                 1.556284      165846
 set_dd_paw                              1.288728          55
 overl_mu                                1.288583       16065
 w1_dscal                                1.287716      130988
 map_gather                              1.195932         950
 broyd                                   1.121099          53
 m_bcast_z                               1.045810        5062
 setdij_                                 0.996828          81
 w1_dot                                  0.975327       19944
 lincom                                  0.962713         770
 densta                                  0.953538          58
 fornlr                                  0.840039           1
 w1_gaxpy                                0.770876       91161
 w1_daxpy                                0.765137       95410
 hamilt_local                            0.615991       20748
 fft_gq                                  0.594540          53
 pothar                                  0.566436          55
 overl1                                  0.505400       68474
 setg0                                   0.452350          54
 rspher_all                              0.436056          14
 proall                                  0.434191           1
 init_hip                                0.419708           1
 apply_precond                           0.410129      115883
 i1                                      0.398372       12599
 vhamil                                  0.312091       76030
 eccp_nl                                 0.274770      135298
 zhegv                                   0.246312       27761
 depsum                                  0.241562          53
 ggemm                                   0.219161        4481
 m_bcast_d                               0.167497        6990
 setup_precond                           0.165600       22743
 forhar                                  0.153708           2
 overl                                   0.147468       12286
 brget                                   0.115113        7320
 forloc                                  0.079771           1
 fordep                                  0.072620           1
 stufak                                  0.071959           1
 chggra                                  0.067345           1
 brsav                                   0.066690        1832
 pw_charge                               0.056386       17691
 brgrid                                  0.027441           1
 hip_hipfft_makeplans                    0.017369           3
 hip_hipfft_makeplan                     0.017363           6
 strkin                                  0.016906           1
 brpre                                   0.015619          53
 inisym                                  0.011814           1
 truncate_high_frequency_w1              0.010501       78025
 fewald                                  0.006899           1
 strelo                                  0.006332           1
 rsp                                     0.004857           1
 strehar                                 0.004439           1
 rcp                                     0.000410           1
 set_dd_magatom                          0.000369          55
 vectorpot                               0.000343          54
 hip_init_rocsolver                      0.000242           1
 shift_bands_between_low_high            0.000227         364
 hip_init_hipblas                        0.000193           1
 crpa_reader                             0.000051           1
 potlok_metagga                          0.000040          54
 posmap                                  0.000018           2
 rotate_active_occupied_orbital          0.000006           1
 redis_pw_over_bands                     0.000000           1

Profiling took   0.549215  0.315280  0.002954  0.002829 seconds
Profiling took   0.409722 seconds