 vasp.6.3.2 27Jun22 (build Mar 15 2023 15:45:48) complex

 executed on             LinuxIFC date 2024.07.24  10:38:03

 INCAR:
   SYSTEM = ni3al
   PREC = Accurate
   EDIFF = 1E-6
   EDIFFG = -1E-2
   ISTART = 0
   ICHARG = 2
   LREAL = Auto
   NSW = 0
   ISIF = 2
   IBRION = -1
   ISMEAR = -5
   SIGMA = 0.1
   ENCUT = 530
   ALGO = Fast
   LMAXMIX = 4
   AMIN = 0.01
   NELM = 150
   LCHARG = .F.
   LWAVE = .T.
   NCORE = 4
   KPAR = 1
   LELF = .T.

 POTCAR:    PAW_PBE O 08Apr2002
 POTCAR:    PAW_PBE F 08Apr2002
 POTCAR:    PAW_PBE Al 04Jan2001
 POTCAR:    PAW_PBE K_sv 06Sep2000
 POTCAR:    PAW_PBE O 08Apr2002
   VRHFIN =O: s2p4

   TITEL  = PAW_PBE O 08Apr2002
   POMASS =   16.000; ZVAL   =    6.000    mass and valenz
   ENMAX  =  400.000; ENMIN  =  300.000 eV

 POTCAR:    PAW_PBE F 08Apr2002
   VRHFIN =F: s2p5

   TITEL  = PAW_PBE F 08Apr2002
   POMASS =   18.998; ZVAL   =    7.000    mass and valenz
   ENMAX  =  400.000; ENMIN  =  300.000 eV

 POTCAR:    PAW_PBE Al 04Jan2001
   VRHFIN =Al: s2p1

   TITEL  = PAW_PBE Al 04Jan2001
   POMASS =   26.981; ZVAL   =    3.000    mass and valenz
   ENMAX  =  240.300; ENMIN  =  180.225 eV

 POTCAR:    PAW_PBE K_sv 06Sep2000
   VRHFIN =K:  3s3p4s

   TITEL  = PAW_PBE K_sv 06Sep2000
   POMASS =   39.098; ZVAL   =    9.000    mass and valenz
   ENMAX  =  259.264; ENMIN  =  194.448 eV

 Optimization of the real space projectors (new method)

 maximal supplied QI-value         = 24.76
 optimisation between [QCUT,QGAM] = [ 11.64, 23.52] = [ 37.91,154.88] Ry
 Optimized for a Real-space Cutoff    1.16 Angstroem

   l    n(q)    QCUT    max X(q) W(low)/X(q) W(high)/X(q)  e(spline)
   0      8    11.635    20.381    0.63E-04    0.20E-03    0.27E-06
   0      8    11.635    15.268    0.67E-04    0.21E-03    0.29E-06
   1      8    11.635     5.964    0.19E-03    0.13E-03    0.31E-06
   1      8    11.635     5.382    0.18E-03    0.10E-03    0.27E-06
 Optimization of the real space projectors (new method)

[...]

   l    n(q)    QCUT    max X(q) W(low)/X(q) W(high)/X(q)  e(spline)
   0      8    11.707   176.870    0.56E-04    0.14E-03    0.47E-07
   0      8    11.707   105.762    0.55E-04    0.13E-03    0.46E-07
   1      8    11.707    55.370    0.15E-03    0.19E-04    0.75E-07
   1      8    11.707    20.208    0.14E-03    0.15E-04    0.69E-07
 Optimization of the real space projectors (new method)

 maximal supplied QI-value         = 16.25
 optimisation between [QCUT,QGAM] = [ 11.70, 23.56] = [ 38.34,155.50] Ry
 Optimized for a Real-space Cutoff    1.35 Angstroem

   l    n(q)    QCUT    max X(q) W(low)/X(q) W(high)/X(q)  e(spline)
   0     10    11.701    11.234    0.18E-04    0.29E-04    0.22E-07
   0     10    11.701    12.505    0.24E-04    0.57E-04    0.47E-07
   1      9    11.701   167.359    0.12E-03    0.49E-03    0.44E-06
   1      9    11.701   168.875    0.12E-03    0.49E-03    0.44E-06
   2      9    11.701     3.435    0.48E-04    0.68E-04    0.36E-07
  PAW_PBE O 08Apr2002                   :
  PAW_PBE F 08Apr2002                   :
  PAW_PBE Al 04Jan2001                  :
  PAW_PBE K_sv 06Sep2000                :

 POSCAR: SCAR
  positions in direct lattice
  velocities in cartesian coordinates
 exchange correlation table for  LEXCH =        8
   RHO(1)=    0.500       N(1)  =     2000
   RHO(2)=  100.500       N(2)  =     4000

 VTST: version 4.2, (08/11/21)

 CHAIN: initializing optimizer

 OPT: Using VASP Dynamics algorithm
 CHAIN: Read ICHAIN            0

 POSCAR: SCAR
  positions in direct lattice
  velocities in cartesian coordinates

 ion  position               nearest neighbor table
   1  0.173  0.986  0.062-  42 1.87  45 1.87  41 1.99  51 1.99
   2  0.423  0.486  0.062-  43 1.87  58 1.87  54 1.99  64 1.99
   3  0.097  0.500  0.164-  38 1.87  40 1.87  49 1.99  43 1.99
   4  0.347  0.000  0.164-  39 1.87  41 1.87  62 1.99  56 1.99
   5  0.153  0.333  0.062-  45 1.87  43 1.87  40 1.99  50 1.99
   6  0.403  0.833  0.062-  58 1.87  56 1.87  41 1.99  51 1.99
   7  0.173  0.680  0.062-  43 1.87  44 1.87  41 1.99  51 1.99
   8  0.423  0.180  0.062-  45 1.87  56 1.87  54 1.99  64 1.99
   9  0.077  0.153  0.164-  39 1.87  40 1.87  48 1.99  42 1.99
  10  0.327  0.653  0.164-  52 1.87  41 1.87  49 1.99  43 1.99
  11  0.077  0.847  0.164-  38 1.87  41 1.87  48 1.99  42 1.99
  12  0.327  0.347  0.164-  39 1.87  54 1.87  49 1.99  43 1.99
  13  0.173  0.320  0.265-  46 1.70  49 1.87  39 1.99  66 2.77
  14  0.423  0.820  0.265-  47 1.67  62 1.87  52 1.99
  15  0.153  0.667  0.265-  47 1.67  49 1.87  38 1.99
  16  0.403  0.167  0.265-  60 1.80  62 1.87  39 1.99  66 2.66
  17  0.173  0.014  0.265-  47 1.69  48 1.87  39 1.99  66 2.79
  18  0.423  0.514  0.265-  60 1.76  49 1.87  52 1.99
  19  0.673  0.986  0.062-  56 1.87  59 1.87  55 1.99  65 1.99
  20  0.923  0.486  0.062-  57 1.87  44 1.87  40 1.99  50 1.99
  21  0.597  0.500  0.164-  52 1.87  54 1.87  63 1.99  57 1.99
  22  0.847  0.000  0.164-  53 1.87  55 1.87  48 1.99  42 1.99
  23  0.653  0.333  0.062-  59 1.87  57 1.87  54 1.99  64 1.99
  24  0.903  0.833  0.062-  44 1.87  42 1.87  55 1.99  65 1.99
  25  0.673  0.680  0.062-  57 1.87  58 1.87  55 1.99  65 1.99
  26  0.923  0.180  0.062-  42 1.87  59 1.87  40 1.99  50 1.99
  27  0.577  0.153  0.164-  53 1.87  54 1.87  62 1.99  56 1.99
  28  0.827  0.653  0.164-  38 1.87  55 1.87  63 1.99  57 1.99
  29  0.577  0.847  0.164-  52 1.87  55 1.87  62 1.99  56 1.99
  30  0.827  0.347  0.164-  53 1.87  40 1.87  63 1.99  57 1.99
  31  0.673  0.320  0.265-  60 1.74  63 1.87  53 1.99
  32  0.923  0.820  0.265-  61 1.69  48 1.87  38 1.99
  33  0.653  0.667  0.265-  61 1.68  63 1.87  52 1.99
  34  0.903  0.167  0.265-  46 1.67  48 1.87  53 1.99
  35  0.673  0.014  0.265-  61 1.68  62 1.87  53 1.99
  36  0.923  0.514  0.265-  46 1.66  63 1.87  38 1.99
  37  0.485  0.325  0.371-  60 1.74  66 2.48
  38  0.000  0.667  0.203-  11 1.87  28 1.87   3 1.87  15 1.99  36 1.99  32 1.99  48 2.82  49 2.82
                            63 2.82  47 3.13  46 3.14  61 3.19  41 3.25  55 3.25  40 3.25
  39  0.250  0.167  0.203-  12 1.87   9 1.87   4 1.87  17 1.99  13 1.99  16 1.99  49 2.82  48 2.82
                            62 2.82  47 3.15  46 3.16  54 3.25  40 3.25  41 3.25
  40  0.000  0.333  0.124-  30 1.87   9 1.87   3 1.87  20 1.99  26 1.99   5 1.99  50 2.68  42 2.82
                            43 2.82  57 2.82  46 3.17  53 3.25  39 3.25  38 3.25
  41  0.250  0.833  0.124-  11 1.87  10 1.87   4 1.87   1 1.99   7 1.99   6 1.99  51 2.68  43 2.82
                            42 2.82  56 2.82  47 3.14  52 3.25  38 3.25  39 3.25
  42  0.000  0.000  0.101-  26 1.87   1 1.87  24 1.87  22 1.99   9 1.99  11 1.99  48 2.68  40 2.82
                            41 2.82  55 2.82  44 3.25  45 3.25  59 3.25
  43  0.250  0.500  0.101-   7 1.87   2 1.87   5 1.87   3 1.99  10 1.99  12 1.99  49 2.68  41 2.82
                            40 2.82  54 2.82  45 3.25  44 3.25  58 3.25
  44  0.000  0.667  0.023-  24 1.87   7 1.87  20 1.87  51 2.82  65 2.82  50 2.82  42 3.25  57 3.25
                            43 3.25
  45  0.250  0.167  0.023-   5 1.87   8 1.87   1 1.87  50 2.82  64 2.82  51 2.82  43 3.25  56 3.25
                            42 3.25
  46  0.998  0.334  0.271-  36 1.66  34 1.67  13 1.70  63 2.93  48 2.95  49 2.95  53 3.13  38 3.14
                            39 3.16  40 3.17
  47  0.251  0.831  0.270-  15 1.67  14 1.67  17 1.69  49 2.92  62 2.94  48 2.95  52 3.12  38 3.13
                            41 3.14  39 3.15  66 3.58
  48  0.000  0.000  0.226-  32 1.87  17 1.87  34 1.87  22 1.99   9 1.99  11 1.99  42 2.68  38 2.82
                            39 2.82  53 2.82  46 2.95  47 2.95  61 2.98
  49  0.250  0.500  0.226-  13 1.87  18 1.87  15 1.87   3 1.99  10 1.99  12 1.99  43 2.68  39 2.82
                            38 2.82  52 2.82  47 2.92  46 2.95  60 3.13
  50  0.000  0.333  0.000-  20 1.99  26 1.99   5 1.99  40 2.68  45 2.82  59 2.82  44 2.82
  51  0.250  0.833  0.000-   1 1.99   7 1.99   6 1.99  41 2.68  44 2.82  58 2.82  45 2.82
  52  0.500  0.667  0.203-  29 1.87  10 1.87  21 1.87  33 1.99  18 1.99  14 1.99  62 2.82  49 2.82
                            63 2.82  47 3.12  61 3.18  55 3.25  41 3.25  54 3.25  60 3.35
  53  0.750  0.167  0.203-  30 1.87  27 1.87  22 1.87  35 1.99  31 1.99  34 1.99  63 2.82  62 2.82
                            48 2.82  46 3.13  61 3.19  54 3.25  40 3.25  55 3.25  60 3.36
  54  0.500  0.333  0.124-  12 1.87  27 1.87  21 1.87   2 1.99   8 1.99  23 1.99  64 2.68  56 2.82
                            57 2.82  43 2.82  53 3.25  39 3.25  52 3.25
  55  0.750  0.833  0.124-  29 1.87  28 1.87  22 1.87  19 1.99  25 1.99  24 1.99  65 2.68  57 2.82
                            42 2.82  56 2.82  52 3.25  38 3.25  53 3.25  61 3.26
  56  0.500  0.000  0.101-  19 1.87   6 1.87   8 1.87   4 1.99  27 1.99  29 1.99  62 2.68  54 2.82
                            55 2.82  41 2.82  58 3.25  59 3.25  45 3.25
  57  0.750  0.500  0.101-  25 1.87  20 1.87  23 1.87  21 1.99  28 1.99  30 1.99  63 2.68  55 2.82
                            40 2.82  54 2.82  59 3.25  44 3.25  58 3.25
  58  0.500  0.667  0.023-   6 1.87  25 1.87   2 1.87  51 2.82  65 2.82  64 2.82  56 3.25  43 3.25
                            57 3.25
  59  0.750  0.167  0.023-  23 1.87  26 1.87  19 1.87  50 2.82  64 2.82  65 2.82  57 3.25  56 3.25
                            42 3.25
  60  0.503  0.336  0.291-  31 1.74  37 1.74  18 1.76  16 1.80  63 3.08  49 3.13  62 3.14  66 3.20
                            52 3.35  53 3.36
  61  0.749  0.833  0.275-  33 1.68  35 1.68  32 1.69  62 2.97  63 2.97  48 2.98  52 3.18  53 3.19
                            38 3.19  55 3.26
  62  0.500  0.000  0.226-  14 1.87  35 1.87  16 1.87   4 1.99  27 1.99  29 1.99  56 2.68  52 2.82
                            53 2.82  39 2.82  47 2.94  61 2.97  60 3.14
  63  0.750  0.500  0.226-  31 1.87  36 1.87  33 1.87  21 1.99  28 1.99  30 1.99  57 2.68  53 2.82
                            38 2.82  52 2.82  46 2.93  61 2.97  60 3.08
  64  0.500  0.333  0.000-   2 1.99   8 1.99  23 1.99  54 2.68  45 2.82  59 2.82  58 2.82
  65  0.750  0.833  0.000-  19 1.99  25 1.99  24 1.99  55 2.68  44 2.82  58 2.82  59 2.82
  66  0.265  0.169  0.372-  37 2.48  16 2.66  13 2.77  17 2.79  60 3.20  47 3.58

  LATTYP: Found a simple orthorhombic cell.
 ALAT       =     8.3267490000
 B/A-ratio  =     1.1547005920
 C/A-ratio  =     2.5893163106

  Lattice vectors:

 A1 = (   0.0000000000,  -8.3267490000,   0.0000000000)
 A2 = (   9.6149020000,   0.0000000000,   0.0000000000)
 A3 = (   0.0000000000,   0.0000000000,  21.5605870000)

Analysis of symmetry for initial positions (statically):
 Subroutine PRICEL returns:
 Original cell was already a primitive cell.

 Routine SETGRP: Setting up the symmetry group for a
 simple orthorhombic supercell.

 Subroutine GETGRP returns: Found  1 space group operations
 (whereof  1 operations were pure point group operations)
 out of a pool of  8 trial point group operations.

The static configuration has the point symmetry C_1 .

Analysis of symmetry for dynamics (positions and initial velocities):
 Subroutine PRICEL returns:
 Original cell was already a primitive cell.

[...]

[...]
  329          setg0                                 0.007700                          1   4
  330          broyd                                 0.023337                          1   4
  331            m_sumb_d                              0.002809                       40   5
  332            brget                                 0.002572                      174   5
  333            brsav                                 0.001148                       38   5
  334        m_bcast_d                             0.000051                            2   3
  335      potlok                                0.407615                              1   2
  336        fft3d_mpi                             0.163836                           13   3
  337          fftbrc_mpi                            0.138604                         13   4
  338            fftbas_plan_mpi                       0.138590                       13   5
  339              dfftw_execute                         0.043003                     39   6
  340              map_forward                           0.040262                     14   6
  341                map_gather                            0.011400                    8   7
  342                m_alltoallv_z                         0.021162                    8   7
  343                map_scatter                           0.007656                    8   7
  344              map_backward                          0.054052                     12   6
  345                map_gather                            0.007050                    6   7
  346                m_alltoallv_z                         0.018019                    6   7
  347                map_scatter                           0.028935                    6   7
  348        ggaall_grid                           0.048611                            1   3
  349        m_sumb_d                              0.000142                            5   3
  350        pothar                                0.009209                            1   3
  351          m_sumb_d                              0.000016                          1   4
  352        m_bcast_d                             0.002428                            1   3
  353      potlok_metagga                        0.000000                              1   2
  354      set_dd_magatom                        0.000005                              1   2
  355      set_dd_paw                            0.020938                              1   2
  356        m_sumb_d                              0.001692                            7   3
  357      m_bcast_d                             0.000025                              2   2
  358      fftwav_mpi                            4.587483                           1008   2
  359        fftwav                                4.581814                         1008   3
  360          fft3d                                 3.197090                       1008   4
  361      densta                                0.013685                              1   2

 Flat profile

 i2                                     17.331196        7740
 eddiag                                 17.159238          33
 eddav                                  16.294456           5
 m_sumb_d                               11.770385       12513
 total_time                             11.648048           1
 hamiltmu                                8.916744       10629
 i3                                      7.560469        7740
 potlok                                  6.436196          35
 rpromu_acc                              6.176975       10881
 fft3d                                   5.648551      122978
 newband                                 5.090594       10895
 phaser                                  4.179070         357
 orthch                                  3.991776          34
 orth1                                   3.635618        9136
 lapack                                  2.885812        2889
 m_alltoall_d                            2.337573      165774
 m_alltoallv_z                           2.187052         627
 raccmu_                                 2.176032       10629
 choleski                                2.136487         238
 racc0mu_acc                             2.073640       10629
 fftwav                                  1.994477       76510
 cnorma                                  1.861442      121830
 ggaall_grid                             1.840564          36
 dfftw_execute                           1.728769        1635
 w1_gemv                                 1.526226      198908
 fft3d_mpi                               1.240180       47016
 eccp                                    1.149883       53378
 w1_copy                                 1.010195      106140
 map_scatter                             0.966642         627
 m_bcast_z                               0.897559        4233
 map_gather                              0.862061         627
 w1_dscal                                0.834582       85104
 overl_mu                                0.809388       10629
 setdij_                                 0.712695          62
 set_dd_paw                              0.688190          36
 init_hip                                0.673842           1
 lincom                                  0.647459         504
 w1_gaxpy                                0.625468       71691
 augmentation_charge                     0.575207          34
 w1_dot                                  0.535049       11048
 densta                                  0.529123          39
 w1_daxpy                                0.466003       59124
 redis_proj                              0.420771       21229
 redis_pw                                0.401603       16893
 rspher_all                              0.389769          14
 overl1                                  0.370890       49727
 pothar                                  0.321581          36
 apply_precond                           0.306588       86837
 setg0                                   0.284239          35
 elmin                                   0.260372           1
 broyd                                   0.224212          34
 eddrmm                                  0.218782          33
 brmix                                   0.206536          34
 kinhamil                                0.196006       46468
 vhamil                                  0.191398       46468
 fftext_mpi                              0.189283       46468
 ggemm                                   0.182625        3729
 zhegv                                   0.177428       18514
 fftbas_plan_mpi                         0.155113         548
 eccp_nl                                 0.153780       81220
 force_and_stress                        0.150144           1
 forhar                                  0.149731           2
 soft_charge                             0.121916          34
 depsum                                  0.120168          34
 fftwav_mpi                              0.118390       76510
 m_bcast_d                               0.112520        5817
 overl                                   0.102670       10345
 setup_precond                           0.094281       12768
 forloc                                  0.075638           1
 set_charge                              0.064281          34
 stufak                                  0.059288           1
 proall                                  0.046079           1
 brget                                   0.044466        3105
 rpro_isp                                0.042348          91
 brgrid                                  0.034627           1
 pw_charge                               0.030969        9520
 brsav                                   0.021012         737
 hip_hipfft_makeplan                     0.016986           6
 strnlr                                  0.016621           1
 i1                                      0.015673        7740
 strkin                                  0.013963           1
 fft_gq                                  0.013815          34
 inisym                                  0.011673           1
 hamilt_local                            0.010379       11088
 brpre                                   0.009987          34
 w1_projall                              0.009875        9789
 truncate_high_frequency_w1              0.006792       48148
 strelo                                  0.006186           1
 fornlr                                  0.005399           1
 strehar                                 0.004356           1
 chggra                                  0.003929           1
 rsp                                     0.003912           1
 map_backward                            0.002342         576
 map_forward                             0.001797         520
 fewald                                  0.001489           1
 fftbrc_mpi                              0.000643         548
 rcp                                     0.000344           1
 vectorpot                               0.000191          35
 hip_init_hipblas                        0.000189           1
 set_dd_magatom                          0.000173          36
 shift_bands_between_low_high            0.000150         231
 hip_init_rocsolver                      0.000071           1
 crpa_reader                             0.000066           1
 fordep                                  0.000046           1
 potlok_metagga                          0.000032          35
 posmap                                  0.000016           2
 rotate_active_occupied_orbital          0.000005           1
 hip_hipfft_makeplans                    0.000003           3
 redis_pw_over_bands                     0.000001           1
  summed up times    168.007524013519

 Accumulative profile

 total_time                            168.007524           1
 elmin                                 140.128616           1
 eddrmm                                 60.215378          33
 eddav                                  28.845825           5
 i2                                     22.161464        7740
 eddiag                                 19.503895          33
 hamiltmu                               15.047420       10629
 potlok                                 14.618570          35
 orthch                                 14.186066          34
 m_sumb_d                               11.770385       12513
 i3                                     11.710393        7740
 fft3d_mpi                               7.925406       47016
 fftwav_mpi                              6.980611       76510
 fftwav                                  6.862221       76510
 rpromu_acc                              6.176975       10881
 newband                                 6.025704       10895
 fftbrc_mpi                              5.904419         548
 fftbas_plan_mpi                         5.903777         548
 fft3d                                   5.648551      122978
 raccmu_                                 5.059060       10629
 w1_projall                              4.709417        9789
 set_charge                              4.661645          34
 phaser                                  4.179070         357
 force_and_stress                        4.103946           1
 orth1                                   3.635618        9136
 soft_charge                             3.441857          34
 lapack                                  2.885812        2889
 m_alltoall_d                            2.337573      165774
 map_backward                            2.208406         576
 m_alltoallv_z                           2.187052         627
 strnlr                                  2.154189           1
 choleski                                2.136487         238
 racc0mu_acc                             2.073640       10629
 rpro_isp                                2.020133          91
 cnorma                                  2.015222      121830
 w1_gemv                                 1.897115      198908
 ggaall_grid                             1.840564          36
 map_forward                             1.811487         520
 dfftw_execute                           1.728769        1635
 redis_proj                              1.680175       21229
 redis_pw                                1.479772       16893
 kinhamil                                1.192786       46468
 eccp                                    1.149883       53378
 augmentation_charge                     1.018533          34
 w1_copy                                 1.010195      106140
 fftext_mpi                              0.996780       46468
 map_scatter                             0.966642         627
 m_bcast_z                               0.897559        4233
 map_gather                              0.862061         627
 brmix                                   0.852615          34
 w1_dscal                                0.834582       85104
 overl_mu                                0.809388       10629
 set_dd_paw                              0.755126          36
 setdij_                                 0.751937          62
 fornlr                                  0.716678           1
 init_hip                                0.673842           1
 lincom                                  0.647459         504
 proall                                  0.642867           1
 w1_gaxpy                                0.625468       71691
 w1_dot                                  0.535049       11048
 densta                                  0.529123          39
 w1_daxpy                                0.466003       59124
 pothar                                  0.398183          36
 rspher_all                              0.389769          14
 overl1                                  0.370890       49727
 fft_gq                                  0.356932          34
 broyd                                   0.338759          34
 hamilt_local                            0.322948       11088
 apply_precond                           0.306588       86837
 setg0                                   0.284239          35
 i1                                      0.238366        7740
 vhamil                                  0.191398       46468
 ggemm                                   0.182625        3729
 zhegv                                   0.177428       18514
 eccp_nl                                 0.153780       81220
 forhar                                  0.150743           2
 chggra                                  0.139033           1
 depsum                                  0.136974          34
 m_bcast_d                               0.112520        5817
 overl                                   0.102670       10345
 setup_precond                           0.094281       12768
 forloc                                  0.077610           1
 fordep                                  0.070205           1
 stufak                                  0.059288           1
 brget                                   0.044466        3105
 brgrid                                  0.034627           1
 pw_charge                               0.030969        9520
 brsav                                   0.021012         737
 hip_hipfft_makeplans                    0.016989           3
 hip_hipfft_makeplan                     0.016986           6
 strkin                                  0.014000           1
 inisym                                  0.011689           1
 brpre                                   0.009987          34
 truncate_high_frequency_w1              0.006792       48148
 strelo                                  0.006253           1
 fewald                                  0.005855           1
 strehar                                 0.004386           1
 rsp                                     0.003912           1
 rcp                                     0.000344           1
 vectorpot                               0.000191          35
 hip_init_hipblas                        0.000189           1
 set_dd_magatom                          0.000173          36
 shift_bands_between_low_high            0.000150         231
 hip_init_rocsolver                      0.000071           1
 crpa_reader                             0.000066           1
 potlok_metagga                          0.000032          35
 posmap                                  0.000016           2
 rotate_active_occupied_orbital          0.000005           1
 redis_pw_over_bands                     0.000001           1

Profiling took   0.393147  0.199986  0.002911  0.002796 seconds
Profiling took   0.261342 seconds