 vasp.6.3.2 27Jun22 (build Mar 15 2023 15:45:48) complex

 executed on             LinuxIFC date 2024.07.18  10:22:22

 INCAR:
   SYSTEM = ni3al
   PREC = Accurate
   EDIFF = 1E-6
   EDIFFG = -1E-2
   ISTART = 0
   ICHARG = 2
   LREAL = Auto
   NSW = 300
   ISIF = 3
   IBRION = 2
   ISMEAR = 0
   SIGMA = 0.1
   ENCUT = 530
   ALGO = Fast
   LMAXMIX = 4
   AMIN = 0.01
   NELM = 150
   LCHARG = .FALSE.
   LWAVE = .FALSE.
   KPAR = 8

 POTCAR:   PAW_PBE K_sv 06Sep2000
 POTCAR:   PAW_PBE F 08Apr2002
 POTCAR:   PAW_PBE K_sv 06Sep2000
   VRHFIN =K:  3s3p4s

   TITEL  = PAW_PBE K_sv 06Sep2000
   POMASS =   39.098; ZVAL   =    9.000    mass and valenz
   ENMAX  =  259.216; ENMIN  =  194.412 eV
   QCUT   =   -4.365; QGAM   =    8.730    optimization parameters

   Description
     l     E      TYP  RCUT    TYP  RCUT
     0   .000     23  2.300
     0   .000     23  2.300
     1   .000     23  2.300
     1 -1.500     23  2.300
     2   .000     23  2.300

 POTCAR:   PAW_PBE F 08Apr2002
   VRHFIN =F: s2p5

   TITEL  = PAW_PBE F 08Apr2002
   POMASS =   18.998; ZVAL   =    7.000    mass and valenz
   ENMAX  =  400.000; ENMIN  =  300.000 eV
   QCUT   =   -5.545; QGAM   =   11.091    optimization parameters

   Description
     l     E      TYP  RCUT    TYP  RCUT
     0   .000     23  1.200
     0  -.700     23  1.200
     1   .000     23  1.520
     1   .100     23  1.520
     2   .000      7  1.500

 Optimization of the real space projectors (new method)

 maximal supplied QI-value         = 16.25
 optimisation between [QCUT,QGAM] = [ 11.70, 23.56] = [ 38.34,155.50] Ry
 Optimized for a Real-space Cutoff    1.35 Angstroem

   l    n(q)    QCUT    max X(q) W(low)/X(q) W(high)/X(q)  e(spline)
   0     10    11.701     6.336    0.13E-04    0.76E-05    0.61E-08
   0     10    11.701    13.439    0.24E-04    0.57E-04    0.47E-07
   1      9    11.701     3.724    0.22E-04    0.12E-04    0.26E-07
   1      9    11.701    38.716    0.12E-03    0.50E-03    0.44E-06
   2      9    11.701     3.434    0.48E-04    0.68E-04    0.36E-07
 Optimization of the real space projectors (new method)

 maximal supplied QI-value         = 24.76
 optimisation between [QCUT,QGAM] = [ 11.64, 23.52] = [ 37.91,154.88] Ry
 Optimized for a Real-space Cutoff    1.07 Angstroem

   l    n(q)    QCUT    max X(q) W(low)/X(q) W(high)/X(q)  e(spline)
   0      7    11.635     4.906    0.42E-04    0.10E-03    0.40E-07
   0      7    11.635     5.365    0.10E-03    0.31E-03    0.19E-06
   1      7    11.635     2.511    0.38E-04    0.13E-03    0.21E-07
   1      7    11.635     3.801    0.24E-03    0.28E-03    0.21E-06
 PAW_PBE K_sv 06Sep2000                 :
 PAW_PBE F 08Apr2002                    :

 POSCAR: K4 F4
  positions in direct lattice
 exchange correlation table for  LEXCH =        8
   RHO(1)=    0.500       N(1)  =     2000
   RHO(2)=  100.500       N(2)  =     4000

 VTST: version 4.2, (08/11/21)

 CHAIN: initializing optimizer

 OPT: Using VASP Conjugate-Gradient optimizer
 CHAIN: Read ICHAIN            0

 POSCAR: K4 F4
  positions in direct lattice

 ion  position               nearest neighbor table
   1  0.000  0.000  0.000-   5 2.65   6 2.65   7 2.65   5 2.65   7 2.65   6 2.65   2 3.75   3 3.75
                             2 3.75   2 3.75   4 3.75   3 3.75   2 3.75   3 3.75   4 3.75   4 3.75
   2  0.000  0.500  0.500-   5 2.65   7 2.65   8 2.65   7 2.65   5 2.65   8 2.65   1 3.75   4 3.75
                             1 3.75   1 3.75   3 3.75   3 3.75   1 3.75   3 3.75   4 3.75   4 3.75
   3  0.500  0.000  0.500-   5 2.65   6 2.65   8 2.65   6 2.65   8 2.65   5 2.65   1 3.75   4 3.75
                             1 3.75   2 3.75   4 3.75   2 3.75   4 3.75   1 3.75   2 3.75   4 3.75
   4  0.500  0.500  0.000-   6 2.65   7 2.65   8 2.65   8 2.65   6 2.65   7 2.65   2 3.75   3 3.75
                             1 3.75   1 3.75   3 3.75   2 3.75   3 3.75   1 3.75   2 3.75   3 3.75
   5  0.000  0.000  0.500-   1 2.65   2 2.65   3 2.65   1 2.65   2 2.65   3 2.65
   6  0.500  0.000  0.000-   1 2.65   3 2.65   4 2.65   3 2.65   4 2.65   1 2.65
   7  0.000  0.500  0.000-   1 2.65   2 2.65   4 2.65   2 2.65   1 2.65   4 2.65
   8  0.500  0.500  0.500-   2 2.65   3 2.65   4 2.65   4 2.65   3 2.65   2 2.65

  LATTYP: Found a simple cubic cell.
 ALAT       =     5.3088269234

  Lattice vectors:

 A1 = (   5.3088269234,   0.0000000000,   0.0000000000)
 A2 = (   0.0000000000,   5.3088269234,   0.0000000000)
 A3 = (   0.0000000000,   0.0000000000,   5.3088269234)

Analysis of symmetry for initial positions (statically):
 Subroutine PRICEL returns following result:

  LATTYP: Found a face centered cubic cell.
 ALAT       =     5.3088269234

[...]

   4 primitive cells build up your supercell.

 Routine SETGRP: Setting up the symmetry group for a
 simple cubic supercell.

 Subroutine GETGRP returns: Found 48 space group operations
 (whereof 48 operations were pure point group operations)
 out of a pool of 48 trial point group operations.

The static configuration has the point symmetry O_h .

Analysis of symmetry for dynamics (positions and initial velocities):
 Subroutine PRICEL returns following result:

  LATTYP: Found a face centered cubic cell.
 ALAT       =     5.3088269234

  Lattice vectors:

 A1 = (   2.6544134617,  -2.6544134617,   0.0000000000)
 A2 = (   2.6544134617,   0.0000000000,   2.6544134617)
 A3 = (   0.0000000000,  -2.6544134617,   2.6544134617)

   4 primitive cells build up your supercell.

 Routine SETGRP: Setting up the symmetry group for a
 simple cubic supercell.

 Subroutine GETGRP returns: Found 48 space group operations
 (whereof 48 operations were pure point group operations)
 out of a pool of 48 trial point group operations.

The dynamic configuration has the point symmetry O_h .

 Subroutine INISYM returns: Found 48 space group operations
 (whereof 48 operations are pure point group operations),
 and found     4 'primitive' translations

                                     Primitive cell

  volume of cell :      37.4055

  direct lattice vectors                    reciprocal lattice vectors
     2.654413462 -2.654413462  0.000000000     0.188365531 -0.188365531 -0.188365531
     2.654413462  0.000000000  2.654413462     0.188365531  0.188365531  0.188365531
     0.000000000 -2.654413462  2.654413462    -0.188365531 -0.188365531  0.188365531

  length of vectors
     3.753907518  3.753907518  3.753907518     0.326258669  0.326258669  0.326258669

  position of ions in fractional coordinates (direct lattice)
     0.000000000  0.000000000  0.000000000
     0.500000000  0.500000000  0.500000000

  ion indices of the primitive-cell ions
   primitive index   ion index
                 1           1
                 2           5

 KPOINTS: K-Spacing Value to Generate K-Mesh: 0.02

Automatic generation of k-mesh.
 Grid dimensions read from file:
 generate k-points for:    9    9    9

 Generating k-lattice:

  Cartesian coordinates                     Fractional coordinates (reciprocal lattice)
     0.020929503  0.000000000  0.000000000     0.111111111  0.000000000  0.000000000
     0.000000000  0.020929503  0.000000000     0.000000000  0.111111111  0.000000000
     0.000000000  0.000000000  0.020929503     0.000000000  0.000000000  0.111111111

  Length of vectors
     0.020929503  0.020929503  0.020929503

  Shift w.r.t. Gamma in fractional coordinates (k-lattice)
     0.000000000  0.000000000  0.000000000

 Subroutine IBZKPT returns following result:

 Found     35 irreducible k-points:

 Following reciprocal coordinates:
            Coordinates               Weight
  0.000000  0.000000  0.000000      1.000000
  0.111111  0.000000  0.000000      6.000000
  0.222222  0.000000  0.000000      6.000000
  0.333333  0.000000  0.000000      6.000000
  0.444444  0.000000  0.000000      6.000000
  0.111111  0.111111  0.000000     12.000000
  0.222222  0.111111  0.000000     24.000000
  0.333333  0.111111  0.000000     24.000000
  0.444444  0.111111  0.000000     24.000000
  0.222222  0.222222  0.000000     12.000000
  0.333333  0.222222  0.000000     24.000000
  0.444444  0.222222  0.000000     24.000000
  0.333333  0.333333  0.000000     12.000000
  0.444444  0.333333  0.000000     24.000000
  0.444444  0.444444  0.000000     12.000000
  0.111111  0.111111  0.111111      8.000000
  0.222222  0.111111  0.111111     24.000000
  0.333333  0.111111  0.111111     24.000000
  0.444444  0.111111  0.111111     24.000000
  0.222222  0.222222  0.111111     24.000000
  0.333333  0.222222  0.111111     48.000000
  0.444444  0.222222  0.111111     48.000000
  0.333333  0.333333  0.111111     24.000000
  0.444444  0.333333  0.111111     48.000000
  0.444444  0.444444  0.111111     24.000000
  0.222222  0.222222  0.222222      8.000000
  0.333333  0.222222  0.222222     24.000000
  0.444444  0.222222  0.222222     24.000000
  0.333333  0.333333  0.222222     24.000000
  0.444444  0.333333  0.222222     48.000000
  0.444444  0.444444  0.222222     24.000000
  0.333333  0.333333  0.333333      8.000000
  0.444444  0.333333  0.333333     24.000000
  0.444444  0.444444  0.333333     24.000000
  0.444444  0.444444  0.444444      8.000000

 Following cartesian coordinates:
            Coordinates               Weight
  0.000000  0.000000  0.000000      1.000000
  0.020930  0.000000  0.000000      6.000000
  0.041859  0.000000  0.000000      6.000000
  0.062789  0.000000  0.000000      6.000000
  0.083718  0.000000  0.000000      6.000000
  0.020930  0.020930  0.000000     12.000000
  0.041859  0.020930  0.000000     24.000000
  0.062789  0.020930  0.000000     24.000000
  0.083718  0.020930  0.000000     24.000000
  0.041859  0.041859  0.000000     12.000000
  0.062789  0.041859  0.000000     24.000000
  0.083718  0.041859  0.000000     24.000000
  0.062789  0.062789  0.000000     12.000000
  0.083718  0.062789  0.000000     24.000000
  0.083718  0.083718  0.000000     12.000000
  0.020930  0.020930  0.020930      8.000000
  0.041859  0.020930  0.020930     24.000000
  0.062789  0.020930  0.020930     24.000000
  0.083718  0.020930  0.020930     24.000000
  0.041859  0.041859  0.020930     24.000000
  0.062789  0.041859  0.020930     48.000000
  0.083718  0.041859  0.020930     48.000000
  0.062789  0.062789  0.020930     24.000000
  0.083718  0.062789  0.020930     48.000000
  0.083718  0.083718  0.020930     24.000000
  0.041859  0.041859  0.041859      8.000000
  0.062789  0.041859  0.041859     24.000000
  0.083718  0.041859  0.041859     24.000000
  0.062789  0.062789  0.041859     24.000000
  0.083718  0.062789  0.041859     48.000000
  0.083718  0.083718  0.041859     24.000000
  0.062789  0.062789  0.062789      8.000000
  0.083718  0.062789  0.062789     24.000000
  0.083718  0.083718  0.062789     24.000000
  0.083718  0.083718  0.083718      8.000000

 SYSTEM =  ni3al
 POSCAR =  K4 F4

 Startparameter for this run:
   NWRITE =      2    write-flag & timer
   PREC   = accura    normal or accurate (medium, high low for compatibility)
   ISTART =      0    job   : 0-new  1-cont  2-samecut
   ICHARG =      2    charge: 1-file 2-atom 10-const
   ISPIN  =      1    spin polarized calculation?
[...]
  257        chggra                                0.048789                            4   3
  258          fft3d_mpi                             0.042570                         12   4
  259            fftbrc_mpi                            0.039996                       12   5
  260              fftbas_plan_mpi                       0.039988                     12   6
  261                map_forward                           0.000114                   16   7
  262                  map_scatter                           0.000024                  8   8
  263                map_backward                          0.000044                    8   7
  264                  map_gather                            0.000012                  4   8
  265          pothar                                0.001133                          4   4
  266        brmix                                 0.030191                            4   3
  267          brpre                                 0.000376                          4   4
  268          setg0                                 0.010733                          4   4
  269          broyd                                 0.008470                          4   4
  270            brget                                 0.001300                      296   5
  271            brsav                                 0.000751                       72   5
  272          m_bcast_z                             0.007188                          4   4
  273          m_bcast_d                             0.000229                          4   4
  274        m_bcast_d                             0.000074                            8   3
  275      potlok                                0.367699                              4   2
  276        fft3d_mpi                             0.097308                           52   3
  277          fftbrc_mpi                            0.072907                         52   4
  278            fftbas_plan_mpi                       0.072871                       52   5
  279              dfftw_execute                         0.049868                    156   6
  280              map_forward                           0.010101                     56   6
  281                map_scatter                           0.006782                   28   7
  282              map_backward                          0.010457                     48   6
  283                map_gather                            0.007101                   24   7
  284        ggaall_grid                           0.076456                            4   3
  285        pothar                                0.013315                            4   3
  286      potlok_metagga                        0.000002                              4   2
  287      set_dd_magatom                        0.000016                              4   2
  288      set_dd_paw                            0.011175                              4   2
  289        m_sumb_d                              0.000317                           28   3
  290      wavpre_noio                           0.123520                              3   2
  291        stufak                                0.008832                            3   3
  292      densta                                0.000640                              1   2
  293        m_sumb_d                              0.000057                            8   3

 Flat profile

 i2                                      7.643029       10683
 i3                                      5.776690       10683
 rpromu_acc                              4.461466       16258
 hamiltmu                                3.371005       11938
 fft3d                                   3.369882      195052
 orth1                                   3.339412        4737
 eddav                                   2.896916           8
 potlok                                  2.700400          60
 cnorma                                  2.395020      176013
 newband                                 2.130874       12478
 total_time                              1.924738           1
 w1_gemv                                 1.905359      240348
 m_sumb_d                                1.851984        1435
 eccp                                    1.747346       79191
 phaser                                  1.565905        1008
 setdij_                                 1.450496         165
 w1_copy                                 1.312821      151925
 ggaall_grid                             1.226828          64
 eddiag                                  1.187027          52
 lapack                                  1.175118        1255
 w1_dscal                                1.137442      111394
 choleski                                1.072102         504
 raccmu_                                 1.038485       11938
 fftwav                                  0.952513      126625
 overl_mu                                0.934170       11938
 dfftw_execute                           0.870468        2820
 set_charge                              0.833072          56
 w1_gaxpy                                0.772849       83932
 racc0mu_acc                             0.741534       11938
 w1_dot                                  0.717502       17614
 w1_daxpy                                0.674274       82122
 augmentation_charge                     0.641162          56
 overl1                                  0.470735       60087
 fft3d_mpi                               0.465858       69379
 apply_precond                           0.390479      108234
 kinhamil                                0.293260       68427
 lincom                                  0.287585        1044
 init_hip                                0.284720           1
 fftext_mpi                              0.278852       68427
 elmin                                   0.273056           4
 vhamil                                  0.271307       68427
 eccp_nl                                 0.263125      117342
 rspher_all                              0.222015          53
 zhegv                                   0.204978       23447
 pothar                                  0.201049          64
 fftwav_mpi                              0.191566      126625
 set_dd_paw                              0.174141          64
 force_and_stress                        0.171598           4
 depsum                                  0.160609          56
 setup_precond                           0.154738       20520
 setg0                                   0.149684          60
 map_gather                              0.136690         500
 overl                                   0.133266       17060
 fftbas_plan_mpi                         0.121625         952
 wavpre_noio                             0.114688           3
 map_scatter                             0.111845         452
 m_bcast_z                               0.110355         125
 eddrmm                                  0.108529          52
 soft_charge                             0.078673          56
 forhar                                  0.078347           8
 ggemm                                   0.074652        1615
 map_backward                            0.065041        1000
 pw_charge                               0.055986       16128
 forloc                                  0.053019           4
 map_forward                             0.049167         904
 strnlr                                  0.049064           4
 broyd                                   0.045388          56
 brmix                                   0.042716          56
 rpro_isp                                0.036528         468
 densta                                  0.035565          61
 orthch                                  0.035503          56
 inisym                                  0.032757           1
 proall                                  0.024814           4
 i1                                      0.021010       10683
 fornlr                                  0.016598           4
 hamilt_local                            0.016596       17784
 hip_hipfft_makeplan                     0.016282           6
 stufak                                  0.014980           4
 m_bcast_d                               0.013695          81
 strkin                                  0.011696           4
 strelo                                  0.011570           4
 truncate_high_frequency_w1              0.010136       71163
 brget                                   0.010032        2425
 w1_projall                              0.010004       11578
 brsav                                   0.007102         677
 strehar                                 0.006437           4
 brpre                                   0.005436          56
 chggra                                  0.005086           4
 fft_gq                                  0.002219          56
 fewald                                  0.001504           4
 brgrid                                  0.001082           1
 fftbrc_mpi                              0.000756         952
 rsp                                     0.000388           4
 vectorpot                               0.000241          57
 set_dd_magatom                          0.000237          64
 hip_init_hipblas                        0.000193           1
 shift_bands_between_low_high            0.000162         468
 rcp                                     0.000140           4
 fordep                                  0.000127           4
 posmap                                  0.000121           2
 hip_init_rocsolver                      0.000069           1
 crpa_reader                             0.000050           1
 potlok_metagga                          0.000038          60
 rotate_active_occupied_orbital          0.000009           4
 hip_hipfft_makeplans                    0.000004           3
 redis_pw_over_bands                     0.000000           4
  summed up times    70.5054650306702

 Accumulative profile

 total_time                             70.505465           1
 elmin                                  59.571923           4
 eddrmm                                 39.815854          52
 i2                                     13.840053       10683
 i3                                     11.497204       10683
 hamiltmu                                7.593306       11938
 eddav                                   6.773549           8
 potlok                                  5.531790          60
 force_and_stress                        4.496030           4
 rpromu_acc                              4.461466       16258
 orthch                                  4.282886          56
 newband                                 3.490323       12478
 fftwav_mpi                              3.373744      126625
 fft3d                                   3.369882      195052
 orth1                                   3.339412        4737
 fftwav                                  3.182178      126625
 set_charge                              3.034474          56
 fft3d_mpi                               2.961666       69379
 w1_projall                              2.952791       11578
 raccmu_                                 2.714190       11938
 cnorma                                  2.658145      176013
 eddiag                                  2.469001          52
 w1_gemv                                 2.376094      240348
 strnlr                                  2.111708           4
 rpro_isp                                2.041408         468
 m_sumb_d                                1.851984        1435
 kinhamil                                1.749648       68427
 eccp                                    1.747346       79191
 phaser                                  1.565905        1008
 fftext_mpi                              1.456388       68427
 setdij_                                 1.450496         165
 fftbrc_mpi                              1.355592         952
 fftbas_plan_mpi                         1.354836         952
 w1_copy                                 1.312821      151925
 soft_charge                             1.246924          56
 ggaall_grid                             1.226828          64
 lapack                                  1.175118        1255
 w1_dscal                                1.137442      111394
 choleski                                1.072102         504
 overl_mu                                0.934170       11938
 dfftw_execute                           0.870468        2820
 w1_gaxpy                                0.772849       83932
 augmentation_charge                     0.752001          56
 racc0mu_acc                             0.741534       11938
 w1_dot                                  0.717502       17614
 fornlr                                  0.687240           4
 w1_daxpy                                0.674274       82122
 hamilt_local                            0.529440       17784
 overl1                                  0.470735       60087
 apply_precond                           0.390479      108234
 brmix                                   0.371938          56
 set_dd_paw                              0.343496          64
 proall                                  0.343286           4
 i1                                      0.329364       10683
 lincom                                  0.287585        1044
 init_hip                                0.284720           1
 vhamil                                  0.271307       68427
 eccp_nl                                 0.263125      117342
 rspher_all                              0.222015          53
 fordep                                  0.209214           4
 zhegv                                   0.204978       23447
 depsum                                  0.202477          56
 map_backward                            0.201730        1000
 pothar                                  0.201049          64
 map_forward                             0.161012         904
 setup_precond                           0.154738       20520
 setg0                                   0.149684          60
 map_gather                              0.136690         500
 overl                                   0.133266       17060
 wavpre_noio                             0.123520           3
 map_scatter                             0.111845         452
 m_bcast_z                               0.110355         125
 forhar                                  0.078347           8
 ggemm                                   0.074652        1615
 broyd                                   0.062522          56
 pw_charge                               0.055986       16128
 forloc                                  0.053019           4
 fft_gq                                  0.052717          56
 chggra                                  0.048789           4
 densta                                  0.039125          61
 inisym                                  0.032878           1
 hip_hipfft_makeplans                    0.016286           3
 hip_hipfft_makeplan                     0.016282           6
 stufak                                  0.014980           4
 m_bcast_d                               0.013695          81
 strkin                                  0.011810           4
 strelo                                  0.011570           4
 truncate_high_frequency_w1              0.010136       71163
 brget                                   0.010032        2425
 brsav                                   0.007102         677
 strehar                                 0.006437           4
 brpre                                   0.005436          56
 fewald                                  0.002426           4
 brgrid                                  0.001082           1
 rsp                                     0.000388           4
 vectorpot                               0.000241          57
 set_dd_magatom                          0.000237          64
 hip_init_hipblas                        0.000193           1
 shift_bands_between_low_high            0.000162         468
 rcp                                     0.000140           4
 posmap                                  0.000121           2
 hip_init_rocsolver                      0.000069           1
 crpa_reader                             0.000050           1
 potlok_metagga                          0.000038          60
 rotate_active_occupied_orbital          0.000009           4
 redis_pw_over_bands                     0.000000           4

Profiling took   0.419070  0.241855  0.002787  0.002693 seconds
Profiling took   0.297901 seconds