 vasp.6.3.2 27Jun22 (build Mar 15 2023 15:45:48) complex

 executed on             LinuxIFC date 2024.07.23  08:51:13

 INCAR:
   SYSTEM = ni3al
   PREC = Accurate
   EDIFF = 1E-6
   EDIFFG = -1E-2
   ISTART = 0
   ICHARG = 2
   LREAL = Auto
   NSW = 0
   ISIF = 2
   IBRION = 1
   ISMEAR = 0
   SIGMA = 0.1
   ENCUT = 530
   ALGO = Fast
   LMAXMIX = 4
   AMIN = 0.01
   NELM = 150
   LCHARG = .FALSE.
   LWAVE = .TRUE.
   KPAR = 8
   NCORE = 4
   ISYM = 0

 POTCAR:   PAW_PBE C 08Apr2002
 POTCAR:   PAW_PBE F 08Apr2002
 POTCAR:   PAW_PBE Si 05Jan2001
 POTCAR:   PAW_PBE K_sv 06Sep2000
 POTCAR:   PAW_PBE C 08Apr2002
   VRHFIN =C: s2p2

   TITEL  = PAW_PBE C 08Apr2002
   POMASS =   12.011; ZVAL   =    4.000    mass and valenz
   ENMAX  =  400.000; ENMIN  =  300.000 eV
   QCUT   =   -5.516; QGAM   =   11.032    optimization parameters

   Description
     l     E      TYP  RCUT    TYP  RCUT
     0   .000     23  1.200
     0   .000     23  1.200
     1   .000     23  1.500
     1  2.500     23  1.500
     2   .000      7  1.500

 POTCAR:   PAW_PBE F 08Apr2002
   VRHFIN =F: s2p5

   TITEL  = PAW_PBE F 08Apr2002
   POMASS =   18.998; ZVAL   =    7.000    mass and valenz
   ENMAX  =  400.000; ENMIN  =  300.000 eV
   QCUT   =   -5.545; QGAM   =   11.091    optimization parameters

[...]

 POTCAR:   PAW_PBE Si 05Jan2001
   VRHFIN =Si: s2p2

   TITEL  = PAW_PBE Si 05Jan2001
   POMASS =   28.085; ZVAL   =    4.000    mass and valenz
   ENMAX  =  245.345; ENMIN  =  184.009 eV
   QCUT   =   -4.246; QGAM   =    8.493    optimization parameters

[...]

 POTCAR:   PAW_PBE K_sv 06Sep2000
   VRHFIN =K:  3s3p4s

   TITEL  = PAW_PBE K_sv 06Sep2000
   POMASS =   39.098; ZVAL   =    9.000    mass and valenz
   ENMAX  =  259.216; ENMIN  =  194.412 eV
   QCUT   =   -4.365; QGAM   =    8.730    optimization parameters

   Description
     l     E      TYP  RCUT    TYP  RCUT
     0   .000     23  2.300
     0   .000     23  2.300
     1   .000     23  2.300
     1 -1.500     23  2.300
     2   .000     23  2.300

 Optimization of the real space projectors (new method)

 maximal supplied QI-value         = 25.13
 optimisation between [QCUT,QGAM] = [ 11.56, 23.37] = [ 37.43,152.99] Ry
 Optimized for a Real-space Cutoff    1.07 Angstroem

   l    n(q)    QCUT    max X(q) W(low)/X(q) W(high)/X(q)  e(spline)
   0      7    11.561     5.582    0.43E-04    0.82E-04    0.19E-07
   0      7    11.561    69.432    0.18E-03    0.47E-03    0.23E-06
   1      7    11.561     2.780    0.18E-04    0.55E-04    0.48E-07
   1      7    11.561     4.549    0.18E-03    0.21E-03    0.13E-06
 Optimization of the real space projectors (new method)

[...]

   l    n(q)    QCUT    max X(q) W(low)/X(q) W(high)/X(q)  e(spline)
   0      8    11.707     8.708    0.17E-04    0.67E-05    0.45E-08
   0      8    11.707   106.241    0.59E-04    0.18E-03    0.53E-07
   1      8    11.707     5.901    0.60E-05    0.19E-04    0.21E-07
   1      8    11.707    73.241    0.22E-03    0.21E-04    0.75E-07
 Optimization of the real space projectors (new method)

 maximal supplied QI-value         = 16.25
 optimisation between [QCUT,QGAM] = [ 11.70, 23.56] = [ 38.34,155.50] Ry
 Optimized for a Real-space Cutoff    1.35 Angstroem

   l    n(q)    QCUT    max X(q) W(low)/X(q) W(high)/X(q)  e(spline)
   0     10    11.701     6.336    0.13E-04    0.76E-05    0.61E-08
   0     10    11.701    13.439    0.24E-04    0.57E-04    0.47E-07
   1      9    11.701     3.724    0.22E-04    0.12E-04    0.26E-07
   1      9    11.701    38.716    0.12E-03    0.50E-03    0.44E-06
   2      9    11.701     3.434    0.48E-04    0.68E-04    0.36E-07
 PAW_PBE C 08Apr2002                    :
 PAW_PBE F 08Apr2002                    :
 PAW_PBE Si 05Jan2001                   :
 PAW_PBE K_sv 06Sep2000                 :

 POSCAR: POSCAR
  positions in direct lattice
  velocities in cartesian coordinates
 exchange correlation table for  LEXCH =        8
   RHO(1)=    0.500       N(1)  =     2000
   RHO(2)=  100.500       N(2)  =     4000

 VTST: version 4.2, (08/11/21)

 CHAIN: initializing optimizer

 OPT: Using VASP QUASI-newton optimizer
 CHAIN: Read ICHAIN            0

 POSCAR: POSCAR
  positions in direct lattice
  velocities in cartesian coordinates

 ion  position               nearest neighbor table
   1  0.000  0.000  0.000-  50 1.90
   2  0.167  0.250  0.000-  51 1.90
   3  0.000  0.000  0.389-  80 1.89  57 1.89  73 1.89  52 1.91
   4  0.167  0.250  0.389-  53 1.89  64 1.89  57 1.89  56 1.89
   5  0.000  0.167  0.130-  50 1.90  51 1.90  67 1.90  54 1.90
   6  0.167  0.417  0.130-  51 1.90  82 1.90  74 1.90  55 1.90
   7  0.000  0.333  0.260-  55 1.89  71 1.89  54 1.89  56 1.90
   8  0.167  0.083  0.260-  62 1.89  54 1.89  79 1.89  57 1.90
   9  0.333  0.000  0.000-  58 1.90
  10  0.500  0.250  0.000-  59 1.90
  11  0.333  0.000  0.389-  57 1.89  88 1.89  65 1.89  60 1.90
  12  0.500  0.250  0.389-  65 1.89  64 1.89  72 1.89  61 1.90
  13  0.333  0.167  0.130-  58 1.90  51 1.90  59 1.90  62 1.90
  14  0.500  0.417  0.130-  59 1.90  82 1.90  90 1.90  63 1.90
  15  0.333  0.333  0.260-  55 1.89  63 1.89  62 1.89  64 1.90
  16  0.500  0.083  0.260-  87 1.89  70 1.89  62 1.89  65 1.90
  17  0.667  0.000  0.000-  66 1.90
  18  0.833  0.250  0.000-  67 1.90
  19  0.667  0.000  0.389-  96 1.89  73 1.89  65 1.89  68 1.90
  20  0.833  0.250  0.389-  73 1.89  72 1.89  56 1.89  69 1.90
  21  0.667  0.167  0.130-  66 1.90  67 1.90  59 1.90  70 1.90
  22  0.833  0.417  0.130-  67 1.90  90 1.90  74 1.90  71 1.90
  23  0.667  0.333  0.260-  71 1.89  63 1.89  70 1.89  72 1.90
  24  0.833  0.083  0.260-  70 1.89  54 1.89  95 1.89  73 1.90
  25  0.000  0.500  0.000-  74 1.90
  26  0.167  0.750  0.000-  75 1.90
  27  0.000  0.500  0.389-  56 1.89  81 1.89  97 1.89  76 1.91
  28  0.167  0.750  0.389-  81 1.89  88 1.89  80 1.89  77 1.99
  29  0.000  0.667  0.130-  74 1.90  75 1.90  91 1.90  78 1.90
  30  0.167  0.917  0.130-  75 1.90  58 1.90  50 1.90  79 1.90
  31  0.000  0.833  0.260-  79 1.89  95 1.89  78 1.89  80 1.90
  32  0.167  0.583  0.260-  86 1.89  78 1.89  55 1.89  81 1.90
  33  0.333  0.500  0.000-  82 1.90
  34  0.500  0.750  0.000-  83 1.90
  35  0.333  0.500  0.389-  64 1.89  81 1.89  89 1.89  84 1.93
  36  0.500  0.750  0.389-  89 1.89  88 1.89  96 1.89  85 1.92
  37  0.333  0.667  0.130-  82 1.90  75 1.90  83 1.90  86 1.90
  38  0.500  0.917  0.130-  58 1.90  66 1.90  83 1.90  87 1.90
  39  0.333  0.833  0.260-  79 1.89  87 1.89  86 1.89  88 1.90
  40  0.500  0.583  0.260-  86 1.89  94 1.89  63 1.89  89 1.90
  41  0.667  0.500  0.000-  90 1.90
  42  0.833  0.750  0.000-  91 1.90
  43  0.667  0.500  0.389-  72 1.89  97 1.89  89 1.89  92 1.90
  44  0.833  0.750  0.389-  97 1.89  96 1.89  80 1.89  93 1.90
  45  0.667  0.667  0.130-  90 1.90  91 1.90  83 1.90  94 1.90
  46  0.833  0.917  0.130-  66 1.90  50 1.90  91 1.90  95 1.90
  47  0.667  0.833  0.260-  95 1.89  87 1.89  94 1.89  96 1.90
  48  0.833  0.583  0.260-  94 1.89  78 1.89  71 1.89  97 1.90
  49  0.171  0.735  0.550-  77 1.66  98 2.67
  50  0.000  0.000  0.098-   5 1.90  46 1.90  30 1.90   1 1.90  58 3.09  66 3.09  51 3.09  67 3.09
                            75 3.09  91 3.09  54 3.10  95 3.10  79 3.10
  51  0.167  0.250  0.098-   6 1.90  13 1.90   5 1.90   2 1.90  59 3.09  58 3.09  82 3.09  74 3.09
                            50 3.09  67 3.09  55 3.10  62 3.10  54 3.10
  52  0.975  0.989  0.486-   3 1.91  77 2.47  68 2.85  93 2.90  73 3.02  80 3.03  69 3.13
  53  0.163  0.255  0.486-   4 1.89  84 2.78  76 2.85  69 2.98  61 3.05  56 3.05  64 3.09  57 3.11

  54  0.000  0.167  0.228-  24 1.89   8 1.89   7 1.89   5 1.90  95 3.09  70 3.09  62 3.09  71 3.09
                            79 3.09  55 3.09  73 3.10  57 3.10  56 3.10  50 3.10  67 3.10  51 3.10
  55  0.167  0.417  0.228-  15 1.89   7 1.89  32 1.89   6 1.90  63 3.09  62 3.09  86 3.09  78 3.09
                            54 3.09  71 3.09  64 3.10  56 3.10  81 3.10  51 3.10  82 3.10  74 3.10
  56  0.000  0.333  0.357-  27 1.89  20 1.89   4 1.89   7 1.90  76 2.94  69 3.04  53 3.05  72 3.09
                            64 3.09  73 3.09  81 3.09  97 3.09  57 3.09  71 3.10  55 3.10  54 3.10
  57  0.167  0.083  0.357-  11 1.89   3 1.89   4 1.89   8 1.90  88 3.09  80 3.09  65 3.09  73 3.09
                            64 3.09  56 3.09  62 3.10  54 3.10  79 3.10  53 3.11
  58  0.333  0.000  0.098-  13 1.90  30 1.90  38 1.90   9 1.90  50 3.09  51 3.09  75 3.09  59 3.09
                            83 3.09  66 3.09  62 3.10  79 3.10  87 3.10
  59  0.500  0.250  0.098-  14 1.90  13 1.90  21 1.90  10 1.90  51 3.09  67 3.09  66 3.09  58 3.09
                            82 3.09  90 3.09  63 3.10  62 3.10  70 3.10
  60  0.354  0.992  0.486-  11 1.90  77 2.49  85 2.89  68 2.91  65 3.02  88 3.04  61 3.06
  61  0.491  0.252  0.487-  12 1.90  84 2.76  53 3.05  64 3.05  60 3.06  65 3.11  72 3.13
  62  0.333  0.167  0.228-   8 1.89  16 1.89  15 1.89  13 1.90  87 3.09  54 3.09  79 3.09  55 3.09
                            63 3.09  70 3.09  57 3.10  65 3.10  64 3.10  58 3.10  51 3.10  59 3.10
  63  0.500  0.417  0.228-  15 1.89  23 1.89  40 1.89  14 1.90  55 3.09  71 3.09  70 3.09  62 3.09
                            86 3.09  94 3.09  64 3.10  72 3.10  89 3.10  59 3.10  90 3.10  82 3.10
  64  0.333  0.333  0.357-  35 1.89   4 1.89  12 1.89  15 1.90  84 2.92  61 3.05  53 3.09  56 3.09
                            81 3.09  89 3.09  72 3.09  57 3.09  65 3.09  55 3.10  63 3.10  62 3.10
  65  0.500  0.083  0.357-  11 1.89  19 1.89  12 1.89  16 1.90  60 3.02  88 3.09  96 3.09  57 3.09
                            73 3.09  72 3.09  64 3.09  87 3.10  70 3.10  62 3.10  61 3.11  68 3.14
  66  0.667  0.000  0.098-  46 1.90  21 1.90  38 1.90  17 1.90  50 3.09  67 3.09  91 3.09  83 3.09
                            59 3.09  58 3.09  95 3.10  70 3.10  87 3.10
  67  0.833  0.250  0.098-  22 1.90  21 1.90   5 1.90  18 1.90  59 3.09  66 3.09  90 3.09  74 3.09
                            50 3.09  51 3.09  71 3.10  70 3.10  54 3.10
  68  0.668  0.986  0.486-  19 1.90  85 2.72  93 2.79  52 2.85  60 2.91  96 3.00  73 3.13  65 3.14

  69  0.842  0.257  0.487-  20 1.90  76 2.72  53 2.98  92 3.02  56 3.04  72 3.11  52 3.13  73 3.14

  70  0.667  0.167  0.228-  24 1.89  16 1.89  23 1.89  21 1.90  95 3.09  87 3.09  54 3.09  71 3.09
                            63 3.09  62 3.09  73 3.10  65 3.10  72 3.10  66 3.10  67 3.10  59 3.10
  71  0.833  0.417  0.228-  23 1.89   7 1.89  48 1.89  22 1.90  63 3.09  70 3.09  94 3.09  78 3.09
                            54 3.09  55 3.09  72 3.10  56 3.10  97 3.10  67 3.10  90 3.10  74 3.10
  72  0.667  0.333  0.357-  43 1.89  20 1.89  12 1.89  23 1.90  56 3.09  73 3.09  97 3.09  89 3.09
                            64 3.09  65 3.09  71 3.10  63 3.10  70 3.10  92 3.11  69 3.11  61 3.13
  73  0.833  0.083  0.357-  20 1.89  19 1.89   3 1.89  24 1.90  52 3.02  65 3.09  72 3.09  96 3.09
                            80 3.09  56 3.09  57 3.09  70 3.10  54 3.10  95 3.10  68 3.13  69 3.14
  74  0.000  0.500  0.098-  29 1.90  22 1.90   6 1.90  25 1.90  82 3.09  90 3.09  75 3.09  51 3.09
                            67 3.09  91 3.09  78 3.10  71 3.10  55 3.10
[...]
  249                map_scatter                           0.033572                    5   7
  250              map_backward                          0.068523                     12   6
  251                map_gather                            0.045281                    6   7
  252        ggaall_grid                           0.249749                            1   3
  253        forhar                                0.506054                            2   3
  254        strehar                               0.011943                            1   3
  255        chggra                                0.034447                            1   3
  256          fft3d_mpi                             0.024386                          3   4
  257            fftbrc_mpi                            0.021366                        3   5
  258              fftbas_plan_mpi                       0.021362                      3   6
  259                map_forward                           0.000057                    4   7
  260                  map_scatter                           0.000007                  2   8
  261                map_backward                          0.000012                    2   7
  262                  map_gather                            0.000004                  1   8
  263          pothar                                0.001236                          1   4
  264        brmix                                 0.241779                            1   3
  265          brpre                                 0.001357                          1   4
  266          setg0                                 0.050688                          1   4
  267          broyd                                 0.135992                          1   4
  268            brget                                 0.012038                      154   5
  269            brsav                                 0.010590                       34   5
  270          m_bcast_z                             0.036898                          1   4
  271          m_bcast_d                             0.000163                          1   4
  272        m_bcast_d                             0.000029                            2   3
  273      potlok                                1.623167                              1   2
  274        fft3d_mpi                             0.482267                           13   3
  275          fftbrc_mpi                            0.391555                         13   4
  276            fftbas_plan_mpi                       0.391534                       13   5
  277              dfftw_execute                         0.251401                     39   6
  278              map_forward                           0.070099                     14   6
  279                map_scatter                           0.041843                    7   7
  280              map_backward                          0.068320                     12   6
  281                map_gather                            0.045109                    6   7
  282        ggaall_grid                           0.253545                            1   3
  283        pothar                                0.041299                            1   3
  284      potlok_metagga                        0.000000                              1   2
  285      set_dd_magatom                        0.000005                              1   2
  286      set_dd_paw                            0.025484                              1   2
  287        m_sumb_d                              0.000150                            7   3
  288      densta                                0.002222                              1   2
  289        m_sumb_d                              0.000350                           39   3

 Flat profile

 i2                                     39.141315       10520
 hamiltmu                               27.896156       11657
 eddav                                  26.559163           5
 potlok                                 25.726691          31
 eddiag                                 17.511989          29
 total_time                             14.578449           1
 newband                                11.893423       11725
 rpromu_acc                             11.739657       12975
 i3                                     11.649093       10520
 m_sumb_d                               10.845335        1789
 dfftw_execute                           8.579442        1425
 ggaall_grid                             7.869312          32
 fft3d                                   4.820292      169607
 racc0mu_acc                             3.574988       11657
 setdij_                                 3.376498          58
 fft3d_mpi                               3.277561       65532
 orth1                                   3.232268        3703
 raccmu_                                 3.193845       11657
 cnorma                                  2.621952      167787
 augmentation_charge                     2.502419          30
 w1_gemv                                 2.493716      299792
 eccp                                    1.742729       72929
 choleski                                1.716036          60
 map_gather                              1.681911         253
 w1_copy                                 1.389285      151513
 phaser                                  1.373640          94
 w1_dscal                                1.341283      123018
 map_scatter                             1.312963         225
 pothar                                  1.289299          32
 broyd                                   1.254664          30
 lapack                                  1.113889        1137
 w1_gaxpy                                1.107198      111231
 setg0                                   1.078589          31
 map_forward                             0.908072         450
 overl_mu                                0.891246       11657
 map_backward                            0.868092         506
 fftwav                                  0.851631      104553
 set_dd_paw                              0.809865          32
 m_bcast_z                               0.791090          67
 w1_daxpy                                0.723750       83300
 w1_dot                                  0.716140       14428
 overl1                                  0.622772       74948
 lincom                                  0.558151         128
 force_and_stress                        0.534722           1
 rspher_all                              0.524733          14
 apply_precond                           0.517184      132301
 forhar                                  0.506054           2
 elmin                                   0.471124           1
 brmix                                   0.409929          30
 stufak                                  0.380469           1
 forloc                                  0.339136           1
 vhamil                                  0.304252       65054
 orthch                                  0.303448          30
 kinhamil                                0.303084       65054
 init_hip                                0.300666           1
 fftext_mpi                              0.288503       65054
 eccp_nl                                 0.276577      111858
 zhegv                                   0.255359       27222
 set_charge                              0.247936          30
 eddrmm                                  0.214551          29
 brget                                   0.192054        2439
 depsum                                  0.160396          30
 fftwav_mpi                              0.159505      104553
 brsav                                   0.153625         590
 soft_charge                             0.152090          30
 setup_precond                           0.133789       17000
 overl                                   0.113397       15282
 fftbas_plan_mpi                         0.099329         478
 proall                                  0.073097           1
 ggemm                                   0.063780        1457
 densta                                  0.059763          35
 pw_charge                               0.042862       12388
 brpre                                   0.041106          30
 strnlr                                  0.037748           1
 rpro_isp                                0.023316          26
 strelo                                  0.022783           1
 i1                                      0.021666       10520
 strkin                                  0.021281           1
 hip_hipfft_makeplan                     0.017803           6
 hamilt_local                            0.013514       14500
 fft_gq                                  0.013430          30
 brgrid                                  0.012907           1
 fornlr                                  0.012429           1
 strehar                                 0.011943           1
 m_bcast_d                               0.011846          36
 w1_projall                              0.009861       11337
 truncate_high_frequency_w1              0.009644       67554
 chggra                                  0.008825           1
 rsp                                     0.008283           1
 fewald                                  0.001521           1
 fftbrc_mpi                              0.000687         478
 rcp                                     0.000570           1
 hip_init_hipblas                        0.000387           1
 vectorpot                               0.000160          31
 set_dd_magatom                          0.000142          32
 hip_init_rocsolver                      0.000069           1
 fordep                                  0.000053           1
 crpa_reader                             0.000051           1
 shift_bands_between_low_high            0.000036          58
 potlok_metagga                          0.000023          31
 hip_hipfft_makeplans                    0.000008           3
 rotate_active_occupied_orbital          0.000006           1
 redis_pw_over_bands                     0.000000           1
  summed up times    275.109372854233

 Accumulative profile

 total_time                            275.109373           1
 elmin                                 244.329290           1
 eddrmm                                118.506464          29
 potlok                                 49.414480          31
 i2                                     47.342552       10520
 hamiltmu                               37.667488       11657
 eddav                                  37.340921           5
 eddiag                                 19.122439          29
 fft3d_mpi                              18.488793       65532
 i3                                     17.723243       10520
 fftbrc_mpi                             13.450496         478
 fftbas_plan_mpi                        13.449809         478
 newband                                13.242438       11725
 set_charge                             12.744593          30
 rpromu_acc                             11.739657       12975
 m_sumb_d                               10.845335        1789
 force_and_stress                        9.586287           1
 soft_charge                             8.600616          30
 dfftw_execute                           8.579442        1425
 ggaall_grid                             7.869312          32
 raccmu_                                 7.660080       11657
 w1_projall                              7.373045       11337
 orthch                                  5.132802          30
 rpro_isp                                4.860227          26
 fft3d                                   4.820292      169607
 fftwav_mpi                              4.070692      104553
 brmix                                   3.931009          30
 strnlr                                  3.925085           1
 fftwav                                  3.911187      104553
 augmentation_charge                     3.682344          30
 racc0mu_acc                             3.574988       11657
 setdij_                                 3.376498          58
 orth1                                   3.232268        3703
 w1_gemv                                 3.116488      299792
 cnorma                                  2.898529      167787
 map_backward                            2.550003         506
 kinhamil                                2.387713       65054
 map_forward                             2.221035         450
 fftext_mpi                              2.084629       65054
 eccp                                    1.742729       72929
 choleski                                1.716036          60
 map_gather                              1.681911         253
 broyd                                   1.600343          30
 set_dd_paw                              1.450156          32
 w1_copy                                 1.389285      151513
 phaser                                  1.373640          94
 w1_dscal                                1.341283      123018
 map_scatter                             1.312963         225
 fornlr                                  1.302099           1
 pothar                                  1.289299          32
 lapack                                  1.113889        1137
 w1_gaxpy                                1.107198      111231
 setg0                                   1.078589          31
 overl_mu                                0.891246       11657
 m_bcast_z                               0.791090          67
 w1_daxpy                                0.723750       83300
 w1_dot                                  0.716140       14428
 proall                                  0.683782           1
 overl1                                  0.622772       74948
 hamilt_local                            0.594227       14500
 lincom                                  0.558151         128
 rspher_all                              0.524733          14
 apply_precond                           0.517184      132301
 forhar                                  0.506054           2
 stufak                                  0.380469           1
 i1                                      0.361133       10520
 fordep                                  0.348258           1
 forloc                                  0.339136           1
 vhamil                                  0.304252       65054
 init_hip                                0.300666           1
 eccp_nl                                 0.276577      111858
 zhegv                                   0.255359       27222
 fft_gq                                  0.245783          30
 depsum                                  0.213697          30
 brget                                   0.192054        2439
 brsav                                   0.153625         590
 setup_precond                           0.133789       17000
 overl                                   0.113397       15282
 densta                                  0.064044          35
 ggemm                                   0.063780        1457
 pw_charge                               0.042862       12388
 brpre                                   0.041106          30
 chggra                                  0.034447           1
 strelo                                  0.022783           1
 strkin                                  0.022666           1
 hip_hipfft_makeplans                    0.017811           3
 hip_hipfft_makeplan                     0.017803           6
 brgrid                                  0.012907           1
 strehar                                 0.011943           1
 m_bcast_d                               0.011846          36
 fewald                                  0.010592           1
 truncate_high_frequency_w1              0.009644       67554
 rsp                                     0.008283           1
 rcp                                     0.000570           1
 hip_init_hipblas                        0.000387           1
 vectorpot                               0.000160          31
 set_dd_magatom                          0.000142          32
 hip_init_rocsolver                      0.000069           1
 crpa_reader                             0.000051           1
 shift_bands_between_low_high            0.000036          58
 potlok_metagga                          0.000023          31
 rotate_active_occupied_orbital          0.000006           1
 redis_pw_over_bands                     0.000000           1

Profiling took   0.409526  0.241574  0.002841  0.002698 seconds
Profiling took   0.301718 seconds